@relation tagalog_merged_features_embeddings-weka.filters.unsupervised.attribute.Remove-R19-792-weka.filters.unsupervised.attribute.NumericToNominal-Rlast

@attribute word_count numeric
@attribute sentence_count numeric
@attribute phrase_count_per_sentence numeric
@attribute average_word_len numeric
@attribute average_sentence_len numeric
@attribute average_syllable_count numeric
@attribute polysyll_count numeric
@attribute consonant_cluster_density numeric
@attribute v_density numeric
@attribute cv_density numeric
@attribute vc_density numeric
@attribute cvc_density numeric
@attribute vcc_density numeric
@attribute cvcc_density numeric
@attribute ccvc_density numeric
@attribute ccv_density numeric
@attribute ccvcc_density numeric
@attribute ccvccc_density numeric
@attribute class {1,2,3}

@data
30,6,0,3.6,5,1.7,0,0.2,1.7,1.5,0.9,0.6,0.2,0,0,0,0,0,1
151,22,1.6,4.92053,6.863636,2.139073,3,0.443709,2.139073,1.807947,1.456954,0.86755,0.344371,0.278146,0.119205,0.218543,0.033113,0,1
189,23,1.391304,5.455026,8.217391,2.338624,14,0.513228,2.338624,1.931217,1.84127,0.952381,0.391534,0.285714,0.111111,0.206349,0.010582,0,1
42,6,1.333333,5.071429,7,2.166667,2,0.452381,2.166667,1.880952,1.642857,0.928571,0.404762,0.357143,0.166667,0.214286,0.047619,0.02381,1
505,54,1.73913,4.376238,9.351852,1.910891,13,0.382178,1.910891,1.558416,1.376238,0.740594,0.291089,0.160396,0.118812,0.192079,0.023762,0,1
83,9,0,5.192771,9.222222,2.180723,3,0.710843,2.180723,1.662651,1.771084,0.855422,0.650602,0.39759,0.168675,0.409639,0.036145,0,1
99,16,1.0625,4.050505,6.1875,1.919192,2,0.242424,1.919192,1.505051,1.252525,0.636364,0.191919,0.070707,0.020202,0.080808,0,0,1
27,7,1.285714,3.814815,3.857143,1.777778,0,0.111111,1.777778,1.518519,1.111111,0.814815,0.111111,0,0,0,0,0,1
77,10,1.444444,4.558442,7.7,1.961039,4,0.480519,1.961039,1.467532,1.493506,0.766234,0.38961,0.285714,0.077922,0.12987,0.012987,0,1
94,11,1.090909,5.308511,8.545455,2.202128,5,0.531915,2.202128,1.904255,1.787234,1.021277,0.446809,0.319149,0.180851,0.255319,0.053191,0,1
402,70,1.704545,4.415423,5.742857,1.915423,3,0.30597,1.915423,1.654229,1.360697,0.766169,0.241294,0.179104,0.094527,0.121891,0.024876,0,1
188,14,1.769231,4.728723,13.428571,1.989362,6,0.473404,1.989362,1.648936,1.505319,0.803191,0.367021,0.25,0.074468,0.196809,0.021277,0,1
171,36,1.388889,5,4.75,1.824561,3,0.561404,1.824561,1.608187,1.426901,0.865497,0.385965,0.25731,0.122807,0.181287,0.05848,0.005848,1
32,7,1.333333,3.375,4.571429,1.5,0,0.125,1.5,1.3125,0.9375,0.6875,0.0625,0,0,0,0,0,1
154,18,1.705882,4.876623,8.555556,2.045455,3,0.506494,2.045455,1.746753,1.564935,0.88961,0.396104,0.253247,0.162338,0.220779,0.064935,0,1
205,28,1.222222,4.726829,7.321429,1.946341,3,0.385366,1.946341,1.736585,1.565854,0.960976,0.331707,0.239024,0.117073,0.146341,0.009756,0,1
193,28,1.444444,4.772021,6.892857,1.92228,4,0.481865,1.92228,1.746114,1.502591,0.927461,0.393782,0.352332,0.150259,0.186528,0,0,1
147,16,1.266667,5.129252,9.1875,2.115646,5,0.496599,2.115646,1.843537,1.727891,0.979592,0.435374,0.278912,0.163265,0.231293,0.068027,0.006803,1
443,102,1.258065,4.557562,4.343137,1.914221,8,0.395034,1.914221,1.634312,1.458239,0.778781,0.297968,0.198646,0.058691,0.103837,0.018059,0,1
159,16,2.214286,4.628931,9.9375,2,3,0.320755,2,1.72327,1.484277,0.823899,0.289308,0.226415,0.100629,0.157233,0,0,1
76,2,0,4.315789,38,1.934211,1,0.381579,1.934211,1.513158,1.210526,0.657895,0.328947,0.184211,0.092105,0.131579,0,0,1
54,5,0,4.944444,10.8,2.148148,0,0.407407,2.148148,1.851852,1.592593,0.87037,0.314815,0.277778,0.111111,0.203704,0,0,1
211,21,1.619048,4.853081,10.047619,1.976303,3,0.521327,1.976303,1.800948,1.459716,0.909953,0.383886,0.274882,0.165877,0.251185,0.042654,0,1
182,21,1.235294,4.791209,8.666667,2.005495,3,0.456044,2.005495,1.681319,1.571429,0.895604,0.384615,0.285714,0.093407,0.120879,0.021978,0,1
172,27,1.538462,5.476744,6.37037,2.273256,8,0.505814,2.273256,2.046512,1.866279,1.104651,0.418605,0.30814,0.186047,0.290698,0.034884,0,1
97,9,1.333333,4.639175,10.777778,1.938144,0,0.484536,1.938144,1.690722,1.412371,0.896907,0.391753,0.28866,0.164948,0.195876,0.061856,0,1
191,18,1.333333,4.884817,10.611111,2.026178,8,0.528796,2.026178,1.722513,1.560209,0.86911,0.413613,0.324607,0.125654,0.230366,0.005236,0,1
180,15,1.769231,4.494444,12,1.827778,2,0.433333,1.827778,1.561111,1.455556,0.816667,0.311111,0.216667,0.116667,0.161111,0.022222,0,1
127,19,1.461538,4.614173,6.684211,1.96063,3,0.503937,1.96063,1.645669,1.377953,0.779528,0.409449,0.259843,0.188976,0.275591,0.055118,0,1
364,53,1.404762,4.730769,6.867925,1.978022,4,0.436813,1.978022,1.777473,1.453297,0.884615,0.346154,0.285714,0.186813,0.241758,0.016484,0,1
99,15,1.466667,4.232323,6.6,1.828283,2,0.282828,1.828283,1.616162,1.313131,0.767677,0.20202,0.10101,0.050505,0.10101,0,0,1
1120,139,1.794393,4.665179,8.057554,2.001786,32,0.360714,2.001786,1.759821,1.475893,0.8375,0.290179,0.221429,0.08125,0.154464,0.008929,0.001786,1
624,75,1.5,4.798077,8.32,2.089744,21,0.360577,2.089744,1.826923,1.551282,0.897436,0.307692,0.25,0.11859,0.171474,0.028846,0,1
234,17,1.764706,4.948718,13.764706,2.004274,5,0.547009,2.004274,1.730769,1.538462,0.923077,0.461538,0.337607,0.209402,0.286325,0.047009,0,1
160,10,1.1,4.99375,16,2.06875,11,0.55,2.06875,1.76875,1.60625,0.8875,0.45625,0.28125,0.15,0.26875,0.0625,0,1
1133,118,1.524752,4.745808,9.601695,1.954987,31,0.481906,1.954987,1.739629,1.461606,0.88526,0.37158,0.305384,0.154457,0.202118,0.022065,0.000883,1
170,20,2.9,4.376471,8.5,1.923529,2,0.347059,1.923529,1.529412,1.341176,0.711765,0.288235,0.235294,0.047059,0.129412,0.017647,0,1
218,29,0,5.266055,7.517241,2.16055,13,0.555046,2.16055,1.908257,1.724771,0.986239,0.426606,0.284404,0.146789,0.261468,0.03211,0,1
444,57,1.714286,4.63964,7.789474,1.975225,10,0.373874,1.975225,1.743243,1.470721,0.858108,0.288288,0.220721,0.105856,0.184685,0.022523,0,1
716,73,1.367647,4.681564,9.808219,1.935754,11,0.477654,1.935754,1.662011,1.444134,0.819832,0.368715,0.273743,0.092179,0.182961,0.02095,0,1
188,16,1.307692,4.702128,11.75,1.994681,2,0.473404,1.994681,1.723404,1.441489,0.808511,0.398936,0.260638,0.117021,0.287234,0.042553,0,1
173,24,1.5,4.959538,7.208333,2.098266,7,0.416185,2.098266,1.884393,1.601156,0.936416,0.323699,0.231214,0.115607,0.16185,0.011561,0,1
275,25,1.565217,4.825455,11,2.069091,6,0.370909,2.069091,1.836364,1.556364,0.909091,0.312727,0.243636,0.101818,0.16,0.014545,0,1
71,12,1.166667,3.985915,5.916667,1.816901,1,0.225352,1.816901,1.507042,1.183099,0.591549,0.225352,0.140845,0.070423,0.084507,0,0,1
176,25,1.44,5.113636,7.04,2.181818,10,0.471591,2.181818,1.897727,1.630682,0.948864,0.363636,0.267045,0.136364,0.227273,0.017045,0,1
41,10,0,3.390244,4.1,1.658537,0,0.073171,1.658537,1.317073,0.902439,0.487805,0.073171,0,0,0,0,0,1
325,39,1.173913,4.606154,8.333333,1.932308,13,0.455385,1.932308,1.621538,1.464615,0.793846,0.350769,0.249231,0.104615,0.196923,0.030769,0,1
52,11,1.2,4.384615,4.727273,1.961538,1,0.288462,1.961538,1.461538,1.576923,0.788462,0.173077,0.096154,0.019231,0.134615,0,0,1
61,12,1.5,3.95082,5.083333,1.885246,0,0.229508,1.885246,1.540984,1.131148,0.540984,0.196721,0.032787,0.016393,0.098361,0,0,1
195,27,1.222222,4.635897,7.222222,1.912821,3,0.558974,1.912821,1.528205,1.466667,0.784615,0.410256,0.266667,0.097436,0.241026,0.010256,0,1
455,42,1.315789,4.931868,10.833333,2.079121,14,0.487912,2.079121,1.782418,1.551648,0.903297,0.391209,0.272527,0.123077,0.230769,0.054945,0,1
270,32,1.52,4.696296,8.4375,2.011111,2,0.362963,2.011111,1.748148,1.466667,0.803704,0.3,0.225926,0.081481,0.125926,0.007407,0,1
342,35,1.225806,4.850877,9.771429,1.98538,11,0.48538,1.98538,1.74269,1.546784,0.874269,0.418129,0.30117,0.108187,0.21345,0.035088,0.005848,1
339,29,2.090909,5.044248,11.689655,2.106195,26,0.501475,2.106195,1.852507,1.628319,0.926254,0.342183,0.238938,0.117994,0.20354,0.041298,0.0059,1
161,21,1.047619,5.360248,7.666667,2.186335,14,0.608696,2.186335,1.857143,1.807453,1.024845,0.496894,0.360248,0.180124,0.310559,0.037267,0,1
200,27,1.588235,4.83,7.407407,2.03,4,0.45,2.03,1.785,1.515,0.875,0.34,0.25,0.13,0.205,0.045,0.005,1
217,31,1.172414,5.036866,7,2.110599,7,0.479263,2.110599,1.870968,1.645161,0.995392,0.40553,0.345622,0.124424,0.211982,0.009217,0,1
282,29,2.086957,4.723404,9.724138,1.939716,10,0.464539,1.939716,1.702128,1.48227,0.91844,0.379433,0.262411,0.195035,0.287234,0.056738,0,1
205,27,1.222222,5.15122,7.592593,2.136585,9,0.55122,2.136585,1.839024,1.687805,0.95122,0.414634,0.297561,0.141463,0.282927,0.039024,0,1
99,20,1.25,4.181818,4.95,1.949495,0,0.121212,1.949495,1.666667,1.353535,0.727273,0.090909,0.040404,0.030303,0.060606,0,0,1
222,27,1.666667,5.085586,8.222222,2.18018,17,0.445946,2.18018,1.936937,1.572072,0.90991,0.378378,0.288288,0.130631,0.243243,0.031532,0.004505,1
287,39,1.675676,4.703833,7.358974,1.993031,9,0.379791,1.993031,1.787456,1.45993,0.912892,0.296167,0.226481,0.12892,0.184669,0.020906,0,1
74,14,0,3.72973,5.285714,1.72973,0,0.27027,1.72973,1.364865,1.027027,0.472973,0.135135,0.013514,0,0.121622,0,0,1
98,7,1.285714,4.663265,14,1.94898,1,0.479592,1.94898,1.540816,1.581633,0.867347,0.408163,0.244898,0.102041,0.132653,0.071429,0,1
222,25,1.083333,4.734234,8.88,1.936937,3,0.463964,1.936937,1.707207,1.518018,0.936937,0.382883,0.252252,0.130631,0.166667,0.054054,0,1
294,26,1.583333,4.789116,11.307692,2.05102,6,0.367347,2.05102,1.816327,1.544218,0.901361,0.309524,0.241497,0.102041,0.156463,0.013605,0,1
110,11,1.909091,5.436364,10,2.181818,2,0.554545,2.181818,1.918182,1.818182,1.027273,0.454545,0.336364,0.190909,0.263636,0.081818,0.018182,1
63,14,0,3.539683,4.5,1.603175,0,0.206349,1.603175,1.365079,0.952381,0.587302,0.079365,0,0,0.063492,0,0,1
52,8,0,4.615385,6.5,1.903846,1,0.365385,1.903846,1.615385,1.576923,0.846154,0.307692,0.192308,0.115385,0.173077,0.019231,0,1
91,16,1.4,4.274725,5.6875,2,2,0.120879,2,1.857143,1.252747,0.835165,0.087912,0.087912,0.065934,0.098901,0,0,1
308,20,1.631579,4.792208,15.4,1.922078,10,0.532468,1.922078,1.665584,1.487013,0.866883,0.431818,0.344156,0.149351,0.217532,0.025974,0,1
447,51,1.568182,4.720358,8.764706,1.939597,9,0.514541,1.939597,1.682327,1.442953,0.825503,0.402685,0.313199,0.138702,0.230425,0.064877,0.006711,1
109,51,1.181818,5.899083,2.137255,2.541284,0,0.486239,2.541284,2.183486,2.192661,1.183486,0.422018,0.348624,0.247706,0.302752,0.027523,0,2
72,10,1.2,4.736111,7.2,2.027778,3,0.569444,2.027778,1.569444,1.5,0.819444,0.486111,0.291667,0.166667,0.291667,0.083333,0,2
62,6,0,5.387097,10.333333,2.241935,4,0.596774,2.241935,1.951613,1.709677,1,0.419355,0.274194,0.145161,0.322581,0.048387,0.016129,2
215,19,1.263158,4.972093,11.315789,2.116279,6,0.418605,2.116279,1.790698,1.655814,0.930233,0.376744,0.302326,0.074419,0.130233,0.018605,0,2
301,22,1.272727,5.259136,13.681818,2.192691,23,0.54485,2.192691,1.933555,1.66113,1.019934,0.428571,0.355482,0.215947,0.295681,0.046512,0,2
69,8,1.125,4.405797,8.625,1.811594,1,0.550725,1.811594,1.42029,1.376812,0.753623,0.405797,0.231884,0.130435,0.246377,0.057971,0,2
348,61,1.5,4.818966,5.704918,2.045977,14,0.439655,2.045977,1.744253,1.525862,0.902299,0.353448,0.227011,0.12069,0.181034,0.028736,0,2
40,5,0,4.45,8,1.9,0,0.25,1.9,1.575,1.55,0.875,0.175,0.15,0.075,0.075,0,0,2
146,18,1.235294,4.931507,8.111111,2.075342,3,0.40411,2.075342,1.849315,1.623288,0.945205,0.363014,0.308219,0.10274,0.150685,0.020548,0,2
512,47,1.892857,4.630859,10.893617,1.974609,8,0.390625,1.974609,1.679688,1.482422,0.828125,0.318359,0.238281,0.097656,0.132813,0.009766,0,2
131,16,0,5.053435,8.1875,2.068702,4,0.633588,2.068702,1.938931,1.427481,0.961832,0.419847,0.312977,0.282443,0.427481,0.099237,0,2
312,38,1.461538,4.166667,8.210526,1.644231,3,0.496795,1.644231,1.285256,1.221154,0.740385,0.342949,0.25641,0.157051,0.240385,0.038462,0.00641,2
194,21,1.277778,4.798969,9.238095,2.015464,5,0.427835,2.015464,1.757732,1.5,0.824742,0.350515,0.268041,0.14433,0.201031,0.036082,0,2
141,11,1.5,4.475177,12.818182,1.836879,1,0.425532,1.836879,1.617021,1.35461,0.787234,0.319149,0.255319,0.070922,0.120567,0.007092,0,2
49,5,1.6,4.55102,9.8,1.938776,3,0.428571,1.938776,1.612245,1.489796,0.795918,0.285714,0.183673,0.061224,0.142857,0.040816,0,2
217,22,1.227273,4.64977,9.863636,1.935484,2,0.493088,1.935484,1.658986,1.447005,0.81106,0.322581,0.207373,0.129032,0.235023,0.087558,0,2
55,11,0,4.818182,5,2.127273,3,0.436364,2.127273,1.890909,1.381818,0.854545,0.345455,0.290909,0.036364,0.218182,0.018182,0,2
226,21,1.368421,4.862832,10.761905,2.057522,6,0.438053,2.057522,1.792035,1.517699,0.911504,0.358407,0.278761,0.066372,0.181416,0.017699,0,2
523,34,2.448276,5.282983,15.382353,2.147228,20,0.57935,2.147228,1.83174,1.741874,1.007648,0.50478,0.369025,0.195029,0.273423,0.051625,0.001912,2
362,39,1.416667,4.729282,9.282051,2.052486,12,0.389503,2.052486,1.707182,1.477901,0.803867,0.292818,0.190608,0.093923,0.146409,0.019337,0,2
200,27,1.45,5.06,7.407407,2.05,5,0.485,2.05,1.805,1.72,1.015,0.385,0.3,0.12,0.175,0.025,0,2
227,17,1.411765,4.92511,13.352941,2.030837,1,0.46696,2.030837,1.779736,1.590308,0.969163,0.422907,0.317181,0.136564,0.23348,0.048458,0,2
268,26,1.458333,4.902985,10.307692,2.041045,9,0.481343,2.041045,1.772388,1.541045,0.88806,0.410448,0.283582,0.141791,0.201493,0.05597,0,2
86,9,1.333333,4.825581,9.555556,2.104651,2,0.348837,2.104651,1.813953,1.55814,0.895349,0.267442,0.232558,0.116279,0.162791,0,0,2
158,14,1.5,5.183544,11.285714,2.113924,13,0.537975,2.113924,1.873418,1.677215,0.955696,0.424051,0.348101,0.126582,0.227848,0.006329,0,2
170,17,1.058824,4.9,10,2.011765,7,0.458824,2.011765,1.782353,1.523529,0.882353,0.376471,0.317647,0.094118,0.164706,0.017647,0,2
62,8,1.125,5.258065,7.75,2.193548,2,0.548387,2.193548,1.83871,1.709677,0.967742,0.435484,0.33871,0.193548,0.290323,0.032258,0,2
62,6,1.6,4.741935,10.333333,2.064516,1,0.33871,2.064516,1.741935,1.548387,0.887097,0.306452,0.241935,0.064516,0.145161,0.016129,0,2
48,4,4,4.8125,12,1.875,0,0.583333,1.875,1.5,1.666667,0.916667,0.4375,0.208333,0.166667,0.229167,0.083333,0,2
372,51,1.45,4.594086,7.294118,1.916667,5,0.451613,1.916667,1.637097,1.443548,0.817204,0.344086,0.239247,0.08871,0.166667,0.034946,0,2
212,30,1.307692,4.679245,7.066667,2.037736,2,0.391509,2.037736,1.698113,1.495283,0.820755,0.287736,0.188679,0.122642,0.216981,0.023585,0,2
261,37,1.16129,4.773946,7.054054,1.961686,2,0.509579,1.961686,1.735632,1.455939,0.873563,0.375479,0.306513,0.180077,0.295019,0.103448,0,2
205,34,1.333333,4.741463,6.029412,1.97561,6,0.429268,1.97561,1.770732,1.419512,0.887805,0.326829,0.253659,0.141463,0.214634,0.009756,0,2
162,17,1.2,4.512346,9.529412,1.876543,1,0.469136,1.876543,1.549383,1.432099,0.790123,0.358025,0.216049,0.104938,0.154321,0.055556,0,2
50,5,2.2,4.52,10,1.92,0,0.24,1.92,1.64,1.56,0.86,0.12,0.12,0.14,0.18,0,0,2
203,30,1.033333,4.955665,6.766667,2.197044,12,0.359606,2.197044,1.852217,1.630542,0.896552,0.325123,0.251232,0.078818,0.133005,0.004926,0,2
344,41,1.575758,4.491279,8.390244,1.90407,2,0.418605,1.90407,1.651163,1.331395,0.793605,0.313953,0.232558,0.090116,0.188953,0.034884,0,2
275,45,1.346154,4.356364,6.111111,1.741818,3,0.498182,1.741818,1.476364,1.269091,0.741818,0.269091,0.174545,0.149091,0.269091,0.054545,0.003636,2
39,6,0,4.230769,6.5,1.769231,1,0.307692,1.769231,1.564103,1.358974,0.769231,0.282051,0.205128,0.128205,0.153846,0.025641,0,2
79,11,1.125,4.316456,7.181818,1.886076,2,0.35443,1.886076,1.506329,1.35443,0.696203,0.21519,0.164557,0.088608,0.113924,0.012658,0,2
644,68,1.210526,4.759317,9.470588,2.023292,22,0.447205,2.023292,1.700311,1.444099,0.812112,0.304348,0.215839,0.099379,0.203416,0.02795,0,2
104,10,2.2,5.192308,10.4,2.192308,4,0.461538,2.192308,1.971154,1.673077,1.009615,0.375,0.269231,0.125,0.173077,0.048077,0,2
22,6,1.5,4.863636,3.666667,2.045455,0,0.545455,2.045455,1.772727,1.409091,0.818182,0.409091,0.318182,0.181818,0.272727,0.045455,0,2
191,20,1.25,5.062827,9.55,2.099476,4,0.465969,2.099476,1.82199,1.680628,0.979058,0.387435,0.298429,0.136126,0.209424,0.010471,0,2
53,6,0,5.377358,8.833333,2.132075,1,0.679245,2.132075,1.943396,1.735849,1.113208,0.603774,0.358491,0.226415,0.320755,0.150943,0,2
89,8,0,4.393258,11.125,1.88764,0,0.370787,1.88764,1.606742,1.247191,0.752809,0.348315,0.314607,0.101124,0.213483,0.022472,0,2
781,90,1.671642,5.183099,8.677778,2.15749,39,0.49936,2.15749,1.924456,1.669654,1.008963,0.416133,0.318822,0.153649,0.240717,0.040973,0,2
245,38,2.05,5.204082,6.447368,2.179592,20,0.493878,2.179592,1.889796,1.738776,0.995918,0.42449,0.334694,0.171429,0.261224,0.028571,0.004082,2
127,42,0,4.708661,3.02381,1.913386,1,0.433071,1.913386,1.748031,1.401575,0.850394,0.354331,0.212598,0.149606,0.188976,0.055118,0.007874,2
307,24,1.272727,4.811075,12.791667,1.977199,5,0.462541,1.977199,1.641694,1.599349,0.885993,0.361564,0.263844,0.127036,0.205212,0.009772,0,2
325,45,1.176471,4.704615,7.222222,1.913846,5,0.461538,1.913846,1.643077,1.467692,0.864615,0.393846,0.283077,0.163077,0.236923,0.027692,0,2
192,30,1.176471,4.666667,6.4,1.942708,1,0.479167,1.942708,1.567708,1.5,0.838542,0.390625,0.260417,0.135417,0.239583,0.072917,0,2
906,117,1.7,4.928256,7.74359,2.094923,37,0.44702,2.094923,1.836645,1.559603,0.917219,0.360927,0.252759,0.140177,0.237307,0.028698,0.002208,2
63,8,1.125,3.936508,7.875,1.714286,0,0.460317,1.714286,1.285714,1.079365,0.539683,0.396825,0.126984,0.111111,0.222222,0.047619,0,2
529,59,1.403846,4.663516,8.966102,1.835539,9,0.57845,1.835539,1.582231,1.425331,0.835539,0.432892,0.287335,0.143667,0.283554,0.041588,0.00189,2
116,20,2.428571,5.034483,5.8,2.094828,2,0.37931,2.094828,1.844828,1.741379,1.025862,0.344828,0.284483,0.112069,0.155172,0.017241,0,2
319,45,1.5,4.514107,7.088889,1.952978,1,0.416928,1.952978,1.730408,1.319749,0.830721,0.338558,0.275862,0.115987,0.238245,0.021944,0,2
463,54,1.391304,4.483801,8.574074,1.958963,6,0.37365,1.958963,1.632829,1.414687,0.792657,0.313175,0.24622,0.112311,0.190065,0.034557,0,2
149,16,1.0625,4.187919,9.3125,1.771812,1,0.369128,1.771812,1.442953,1.33557,0.684564,0.288591,0.194631,0.053691,0.107383,0.006711,0,2
60,8,1.25,4.916667,7.5,2.05,0,0.65,2.05,1.683333,1.466667,0.816667,0.566667,0.35,0.25,0.4,0.15,0,2
176,38,1.4375,4.204545,4.631579,1.846591,3,0.278409,1.846591,1.625,1.221591,0.778409,0.221591,0.153409,0.073864,0.142045,0.011364,0,2
68,11,1.4,5.029412,6.181818,2.147059,5,0.367647,2.147059,1.823529,1.764706,1.014706,0.338235,0.279412,0.117647,0.220588,0.029412,0,2
380,34,1.580645,4.931579,11.176471,2.068421,16,0.457895,2.068421,1.784211,1.631579,0.886842,0.35,0.263158,0.102632,0.157895,0.013158,0,2
118,14,1.2,5.169492,8.428571,2.186441,6,0.474576,2.186441,1.932203,1.576271,0.932203,0.355932,0.254237,0.152542,0.254237,0.067797,0.016949,2
147,19,1.388889,5.013605,7.736842,2.095238,10,0.47619,2.095238,1.823129,1.517007,0.904762,0.408163,0.29932,0.156463,0.210884,0.034014,0,2
108,17,1.714286,4.074074,6.352941,1.703704,1,0.407407,1.703704,1.240741,1.231481,0.611111,0.296296,0.194444,0.083333,0.138889,0.037037,0,2
52,7,0,5.423077,7.428571,2.269231,2,0.480769,2.269231,2.057692,1.788462,1.076923,0.403846,0.326923,0.153846,0.269231,0.096154,0.019231,2
191,17,1.411765,4.670157,11.235294,1.968586,6,0.397906,1.968586,1.743455,1.429319,0.811518,0.308901,0.204188,0.099476,0.193717,0,0,2
171,13,1.071429,5.087719,13.153846,2.093567,15,0.54386,2.093567,1.777778,1.707602,0.953216,0.438596,0.315789,0.140351,0.239766,0.023392,0,2
169,37,1.166667,5.360947,4.567568,2.071006,3,0.698225,2.071006,1.781065,1.680473,1.035503,0.538462,0.402367,0.301775,0.408284,0.076923,0,2
320,35,1.9,4.5875,9.142857,1.884375,7,0.459375,1.884375,1.59375,1.3875,0.79375,0.3625,0.275,0.13125,0.2,0.040625,0,2
579,44,1.475,4.960276,13.159091,2.091537,21,0.493955,2.091537,1.753022,1.614853,0.924007,0.381693,0.288428,0.119171,0.212435,0.031088,0,2
714,85,1.166667,5.043417,8.4,2.105042,43,0.488796,2.105042,1.862745,1.617647,0.946779,0.406162,0.280112,0.148459,0.22549,0.028011,0,2
46,8,0,4.5,5.75,1.891304,1,0.5,1.891304,1.586957,1.369565,0.673913,0.347826,0.130435,0.086957,0.217391,0,0,2
239,27,1.347826,4.782427,8.851852,2.016736,6,0.476987,2.016736,1.786611,1.456067,0.861925,0.39749,0.301255,0.108787,0.238494,0.033473,0,2
64,11,1.181818,4.1875,5.818182,1.90625,0,0.25,1.90625,1.703125,1.140625,0.75,0.234375,0.1875,0.0625,0.171875,0.015625,0,2
184,34,1.125,5.059783,5.411765,2.11413,9,0.467391,2.11413,1.918478,1.592391,0.967391,0.407609,0.309783,0.195652,0.266304,0.048913,0,2
111,11,1.272727,4.837838,10.090909,2.045045,5,0.486486,2.045045,1.693694,1.585586,0.837838,0.378378,0.243243,0.09009,0.198198,0.027027,0,2
836,94,1.75641,4.797847,8.893617,2.032297,32,0.455742,2.032297,1.744019,1.505981,0.882775,0.386364,0.291866,0.139952,0.210526,0.019139,0.001196,2
47,5,0,4.489362,9.4,1.914894,1,0.468085,1.914894,1.617021,1.255319,0.702128,0.382979,0.340426,0.148936,0.234043,0.042553,0.042553,2
41,7,0,5.073171,5.857143,2.170732,2,0.487805,2.170732,1.804878,1.682927,0.902439,0.414634,0.292683,0.268293,0.292683,0.02439,0,2
487,56,1.089286,4.632444,8.696429,1.915811,7,0.494867,1.915811,1.683778,1.406571,0.852156,0.347023,0.258727,0.12731,0.26694,0.024641,0.002053,2
248,26,1.454545,4.895161,9.538462,2.024194,6,0.479839,2.024194,1.790323,1.552419,0.891129,0.403226,0.322581,0.120968,0.193548,0.028226,0,2
163,23,1.764706,4.815951,7.086957,1.98773,4,0.484663,1.98773,1.668712,1.564417,0.865031,0.453988,0.386503,0.08589,0.171779,0.030675,0,2
90,9,1.222222,4.733333,10,1.955556,3,0.5,1.955556,1.633333,1.511111,0.822222,0.344444,0.233333,0.122222,0.222222,0.044444,0,2
209,30,1.391304,5.215311,6.966667,2.200957,6,0.488038,2.200957,1.861244,1.784689,0.942584,0.382775,0.301435,0.119617,0.239234,0.009569,0,2
192,23,1.304348,5.171875,8.347826,2.125,7,0.515625,2.125,1.838542,1.71875,0.96875,0.40625,0.302083,0.125,0.208333,0.036458,0,2
184,20,1.55,4.668478,9.2,2.038043,2,0.36413,2.038043,1.619565,1.625,0.826087,0.331522,0.26087,0.108696,0.141304,0.021739,0,2
304,72,1.5,4.315789,4.222222,1.819079,2,0.368421,1.819079,1.532895,1.315789,0.743421,0.273026,0.190789,0.095395,0.154605,0.023026,0.003289,2
181,32,1.538462,4,5.65625,1.734807,1,0.353591,1.734807,1.519337,1.060773,0.635359,0.254144,0.187845,0.044199,0.165746,0.005525,0.005525,2
85,8,1.5,4.529412,10.625,1.952941,2,0.388235,1.952941,1.635294,1.447059,0.788235,0.329412,0.223529,0.094118,0.176471,0,0,2
50,8,0,3.7,6.25,1.5,0,0.56,1.5,1,1.14,0.54,0.34,0.16,0.06,0.26,0,0,2
44,9,1.111111,4.568182,4.888889,1.886364,0,0.431818,1.886364,1.613636,1.5,0.863636,0.318182,0.159091,0.090909,0.181818,0.045455,0,2
434,46,1.583333,4.702765,9.434783,1.963134,9,0.493088,1.963134,1.670507,1.470046,0.866359,0.412442,0.276498,0.170507,0.24424,0.069124,0.002304,2
999,98,1.585366,4.775776,10.193878,1.992993,27,0.499499,1.992993,1.732733,1.469469,0.892893,0.421421,0.305305,0.149149,0.261261,0.05005,0,2
149,17,1.266667,5.020134,8.764706,2.040268,10,0.503356,2.040268,1.852349,1.624161,0.885906,0.342282,0.234899,0.127517,0.221477,0.020134,0,2
609,42,1.825,5.254516,14.5,2.114943,33,0.676519,2.114943,1.714286,1.679803,0.924466,0.510673,0.339901,0.269294,0.380952,0.047619,0.001642,3
83,8,1.166667,4.771084,10.375,1.939759,2,0.566265,1.939759,1.662651,1.481928,0.86747,0.46988,0.349398,0.156627,0.277108,0.024096,0,3
150,12,1.5,4.746667,12.5,2,3,0.433333,2,1.573333,1.653333,0.88,0.38,0.24,0.093333,0.193333,0.02,0,3
147,15,1.25,4.659864,9.8,1.938776,2,0.44898,1.938776,1.721088,1.414966,0.857143,0.319728,0.251701,0.129252,0.190476,0.013605,0.006803,3
591,88,1.388889,4.681895,6.715909,1.974619,4,0.390863,1.974619,1.724196,1.502538,0.835871,0.331641,0.255499,0.076142,0.152284,0.015228,0,3
720,81,1.368421,4.755556,8.888889,1.868056,13,0.638889,1.868056,1.618056,1.365278,0.868056,0.491667,0.351389,0.173611,0.315278,0.0875,0,3
158,18,1.352941,4.740506,8.777778,1.974684,5,0.449367,1.974684,1.753165,1.481013,0.892405,0.348101,0.278481,0.107595,0.170886,0.025316,0,3
93,10,1.2,5.086022,9.3,2.075269,2,0.494624,2.075269,1.860215,1.677419,1.043011,0.408602,0.333333,0.150538,0.204301,0.043011,0.010753,3
672,92,1.73913,4.636905,7.304348,1.956845,7,0.41369,1.956845,1.751488,1.41369,0.852679,0.345238,0.279762,0.089286,0.205357,0.013393,0,3
27,3,0,5.851852,9,2.37037,2,0.666667,2.37037,2.037037,1.777778,1,0.444444,0.37037,0.185185,0.37037,0.037037,0,3
1824,244,1.658654,4.934211,7.47541,2.026864,62,0.533991,2.026864,1.786184,1.51261,0.903509,0.428728,0.316886,0.178728,0.292763,0.03125,0.004386,3
447,48,1.638889,4.574944,9.3125,1.98434,11,0.362416,1.98434,1.740492,1.391499,0.818792,0.255034,0.187919,0.082774,0.190157,0.017897,0,3
341,31,1.464286,4.979472,11,2.043988,8,0.428152,2.043988,1.794721,1.674487,0.961877,0.369501,0.29912,0.14956,0.184751,0.035191,0,3
117,10,2,4.623932,11.7,1.948718,4,0.316239,1.948718,1.683761,1.581197,0.91453,0.264957,0.222222,0.102564,0.145299,0.008547,0,3
2172,298,1.464567,5.029926,7.288591,2.137201,87,0.501842,2.137201,1.849908,1.556169,0.918048,0.410681,0.271639,0.166667,0.241713,0.030847,0.000921,3
671,79,1.606557,4.631893,8.493671,1.965723,18,0.456036,1.965723,1.66468,1.38301,0.794337,0.357675,0.244411,0.110283,0.219076,0.017884,0,3
138,17,1.4375,4.615942,8.117647,1.92029,4,0.376812,1.92029,1.688406,1.471014,0.913043,0.347826,0.297101,0.065217,0.130435,0.014493,0,3
328,30,1.580645,5.091463,10.933333,2.179878,20,0.405488,2.179878,1.868902,1.75,0.984756,0.338415,0.277439,0.125,0.161585,0.018293,0,3
490,41,1.685714,4.785714,11.95122,2.006122,14,0.47551,2.006122,1.685714,1.546939,0.844898,0.367347,0.232653,0.138776,0.236735,0.034694,0.002041,3
340,62,1.588235,4.888235,5.483871,2.070588,9,0.429412,2.070588,1.805882,1.573529,0.867647,0.367647,0.273529,0.082353,0.161765,0.020588,0,3
119,17,1.538462,4.613445,7,1.932773,1,0.436975,1.932773,1.630252,1.470588,0.890756,0.361345,0.252101,0.168067,0.235294,0.033613,0,3
1180,87,1.888889,5.115254,13.563218,2.145763,53,0.473729,2.145763,1.858475,1.680508,0.948305,0.394068,0.3,0.157627,0.218644,0.040678,0,3
457,65,1.414634,4.306346,7.030769,1.811816,9,0.374179,1.811816,1.509847,1.356674,0.778993,0.291028,0.231947,0.111597,0.194748,0.028446,0,3
471,50,1.463415,4.779193,9.42,2.004246,14,0.44586,2.004246,1.813163,1.475584,0.936306,0.375796,0.278132,0.146497,0.22293,0.038217,0.002123,3
346,50,1.714286,4.82659,6.92,2.057803,8,0.419075,2.057803,1.858382,1.50578,0.895954,0.390173,0.283237,0.132948,0.187861,0.072254,0.008671,3
578,68,1.542373,4.927336,8.5,2.010381,18,0.482699,2.010381,1.769896,1.579585,0.939446,0.415225,0.269896,0.183391,0.230104,0.044983,0.00173,3
458,55,1.727273,4.707424,8.327273,1.901747,8,0.558952,1.901747,1.604803,1.434498,0.836245,0.421397,0.299127,0.176856,0.268559,0.078603,0.019651,3
449,28,1.444444,4.830735,16.035714,1.979955,10,0.518931,1.979955,1.719376,1.501114,0.91314,0.427617,0.311804,0.175947,0.253898,0.069042,0,3
482,43,1.395349,5.026971,11.209302,2.107884,20,0.479253,2.107884,1.817427,1.618257,0.943983,0.375519,0.292531,0.161826,0.232365,0.024896,0,3
132,11,0,5.022727,12,2.075758,4,0.492424,2.075758,1.780303,1.666667,0.984848,0.416667,0.340909,0.143939,0.174242,0.022727,0,3
15,2,1.666667,6.333333,7.5,2.666667,3,0.733333,2.666667,2.066667,1.866667,0.933333,0.466667,0.333333,0.2,0.533333,0,0,3
562,64,1.403846,4.711744,8.78125,1.992883,13,0.501779,1.992883,1.720641,1.402135,0.848754,0.414591,0.286477,0.131673,0.291815,0.053381,0.001779,3
583,66,1.64,4.636364,8.833333,1.987993,9,0.411664,1.987993,1.723842,1.444254,0.814751,0.360206,0.283019,0.099485,0.173242,0.020583,0.001715,3
121,12,1.333333,5.512397,10.083333,2.231405,10,0.61157,2.231405,1.950413,1.793388,1.082645,0.504132,0.380165,0.214876,0.347107,0.057851,0.008264,3
103,12,1.166667,4.68932,8.583333,1.951456,2,0.427184,1.951456,1.737864,1.475728,0.893204,0.320388,0.23301,0.135922,0.213592,0.029126,0.009709,3
998,133,1.590164,5.125251,7.503759,2.156313,26,0.472946,2.156313,1.921844,1.645291,0.968938,0.425852,0.326653,0.152305,0.207415,0.044088,0.001002,3
833,77,1.555556,4.837935,10.818182,2.034814,30,0.447779,2.034814,1.811525,1.498199,0.866747,0.381753,0.301321,0.12605,0.206483,0.034814,0.0012,3
241,27,1.809524,5.170124,8.925926,2.240664,12,0.410788,2.240664,1.904564,1.763485,0.995851,0.356846,0.261411,0.13278,0.20332,0.012448,0,3
136,7,2.25,5.154412,19.428571,2.080882,8,0.727941,2.080882,1.661765,1.632353,0.875,0.529412,0.360294,0.272059,0.441176,0.058824,0,3
904,82,1.391304,4.734513,11.02439,1.960177,20,0.472345,1.960177,1.71792,1.46792,0.849558,0.358407,0.275442,0.139381,0.224558,0.048673,0.002212,3
327,31,2.190476,4.675841,10.548387,2.018349,10,0.406728,2.018349,1.718654,1.397554,0.813456,0.351682,0.256881,0.125382,0.207951,0.015291,0,3
227,21,1.55,4.9163,10.809524,2.004405,6,0.475771,2.004405,1.770925,1.546256,0.92511,0.409692,0.30837,0.189427,0.211454,0.030837,0,3
802,94,1.569767,5.029925,8.531915,2.140898,24,0.416459,2.140898,1.865337,1.604738,0.985037,0.365337,0.300499,0.130923,0.178304,0.044888,0,3
576,53,1.52,4.996528,10.867925,2.046875,21,0.532986,2.046875,1.762153,1.628472,0.9375,0.425347,0.321181,0.142361,0.220486,0.029514,0,3
132,6,0,4.719697,22,2.015152,2,0.409091,2.015152,1.742424,1.522727,0.863636,0.356061,0.280303,0.143939,0.189394,0.007576,0,3
196,22,1.388889,4.77551,8.909091,1.928571,7,0.545918,1.928571,1.653061,1.520408,0.913265,0.428571,0.30102,0.158163,0.22449,0.035714,0,3
101,8,1.777778,4.960396,12.625,1.990099,0,0.574257,1.990099,1.693069,1.613861,0.871287,0.455446,0.366337,0.089109,0.257426,0.019802,0,3
94,9,1.333333,5.361702,10.444444,2.340426,7,0.404255,2.340426,1.957447,1.946809,1.06383,0.382979,0.287234,0.148936,0.202128,0.021277,0,3
550,60,1.433962,4.510909,9.166667,1.874545,11,0.46,1.874545,1.647273,1.330909,0.785455,0.334545,0.249091,0.132727,0.274545,0.070909,0,3
126,10,2,4.865079,12.6,2.02381,4,0.444444,2.02381,1.769841,1.531746,0.984127,0.404762,0.333333,0.166667,0.198413,0.007937,0,3
469,40,1.911765,4.552239,11.725,1.914712,13,0.428571,1.914712,1.569296,1.492537,0.842217,0.33049,0.245203,0.123667,0.21322,0.017058,0,3
531,70,1.634615,4.446328,7.585714,1.92467,3,0.352166,1.92467,1.683616,1.290019,0.819209,0.318267,0.231638,0.105461,0.148776,0.015066,0,3
532,42,2.142857,4.960526,12.666667,2.088346,21,0.466165,2.088346,1.776316,1.650376,0.909774,0.353383,0.236842,0.12406,0.214286,0.031955,0.009398,3
101,8,1.25,5.247525,12.625,2.207921,5,0.514851,2.207921,1.90099,1.762376,1.039604,0.455446,0.366337,0.148515,0.227723,0.019802,0,3
112,7,1.428571,5.098214,16,2.116071,7,0.535714,2.116071,1.803571,1.625,0.928571,0.419643,0.276786,0.151786,0.285714,0.044643,0,3
127,11,1.181818,4.850394,11.545455,2.094488,6,0.377953,2.094488,1.866142,1.543307,0.905512,0.291339,0.228346,0.125984,0.15748,0.015748,0,3
283,20,1.470588,5.035336,14.15,2.120141,21,0.519435,2.120141,1.791519,1.618375,0.915194,0.371025,0.279152,0.14841,0.261484,0.021201,0,3
1946,223,1.473988,4.663412,8.726457,2.014388,57,0.384892,2.014388,1.704008,1.493834,0.829394,0.328366,0.264645,0.078109,0.142857,0.013875,0.001028,3
222,19,1.333333,4.855856,11.684211,1.968468,1,0.563063,1.968468,1.747748,1.459459,0.90991,0.441441,0.306306,0.238739,0.333333,0.054054,0,3
298,32,1.826087,4.909396,9.3125,2.077181,6,0.442953,2.077181,1.798658,1.604027,0.936242,0.402685,0.312081,0.194631,0.258389,0.020134,0.003356,3
727,103,1.423913,4.636864,7.058252,1.957359,16,0.442916,1.957359,1.686382,1.422283,0.833563,0.376891,0.284732,0.126547,0.22696,0.017882,0.002751,3
431,43,1.357143,4.714617,10.023256,1.944316,8,0.480278,1.944316,1.719258,1.436195,0.849188,0.350348,0.2529,0.109049,0.234339,0.032483,0.00464,3
88,7,1.857143,5.204545,12.571429,2.193182,5,0.556818,2.193182,1.909091,1.647727,1,0.477273,0.295455,0.227273,0.340909,0.079545,0,3
393,47,1.285714,4.811705,8.361702,1.992366,6,0.424936,1.992366,1.745547,1.549618,0.888041,0.363868,0.262087,0.119593,0.188295,0.033079,0,3
2952,349,1.762846,4.652778,8.458453,1.983401,79,0.39397,1.983401,1.728659,1.449526,0.864837,0.333333,0.261518,0.104336,0.188686,0.022019,0.000678,3
182,8,1.75,5.021978,22.75,2.049451,6,0.593407,2.049451,1.785714,1.56044,0.895604,0.428571,0.296703,0.175824,0.324176,0.049451,0,3
548,78,1.416667,4.843066,7.025641,1.976277,9,0.534672,1.976277,1.596715,1.616788,0.894161,0.406934,0.297445,0.138686,0.229927,0.029197,0.001825,3
507,56,1.468085,5.005917,9.053571,2.076923,13,0.491124,2.076923,1.820513,1.623274,0.960552,0.414201,0.301775,0.18146,0.262327,0.059172,0.003945,3
161,16,1.5,4.726708,10.0625,2.043478,3,0.391304,2.043478,1.757764,1.52795,0.869565,0.335404,0.248447,0.124224,0.180124,0.024845,0.006211,3
605,46,2,4.819835,13.152174,2.021488,20,0.449587,2.021488,1.742149,1.545455,0.857851,0.338843,0.239669,0.105785,0.218182,0.018182,0,3
390,41,1.421053,5.025641,9.512195,2.05641,10,0.497436,2.05641,1.782051,1.638462,0.989744,0.402564,0.297436,0.164103,0.220513,0.04359,0,3
143,4,3.5,5.20979,35.75,2.055944,2,0.741259,2.055944,1.776224,1.587413,0.958042,0.622378,0.440559,0.251748,0.370629,0.090909,0.006993,3
101,10,1.1,4.891089,10.1,2.089109,5,0.415842,2.089109,1.871287,1.534653,0.90099,0.316832,0.237624,0.118812,0.207921,0.019802,0.009901,3
118,11,1.090909,5.135593,10.727273,2.135593,5,0.567797,2.135593,1.830508,1.601695,0.966102,0.491525,0.398305,0.135593,0.262712,0.033898,0,3
456,76,1.611111,4.927632,6,2.048246,14,0.489035,2.048246,1.754386,1.576754,0.901316,0.405702,0.324561,0.142544,0.219298,0.032895,0.002193,3
556,64,1.4,5.003597,8.6875,2.044964,15,0.492806,2.044964,1.820144,1.622302,0.965827,0.417266,0.332734,0.142086,0.205036,0.041367,0,3
212,19,0,5.146226,11.157895,2.023585,10,0.650943,2.023585,1.731132,1.603774,0.971698,0.566038,0.419811,0.240566,0.306604,0.117925,0.004717,3
98,8,2.111111,4.561224,12.25,1.969388,4,0.438776,1.969388,1.622449,1.387755,0.77551,0.316327,0.244898,0.142857,0.183673,0.010204,0,3
438,80,1.430769,4.657534,5.475,1.924658,8,0.456621,1.924658,1.712329,1.378995,0.833333,0.344749,0.219178,0.136986,0.237443,0.075342,0,3
473,53,1.5,4.970402,8.924528,2.065539,15,0.44186,2.065539,1.835095,1.61945,0.957717,0.401691,0.30444,0.147992,0.198732,0.040169,0.002114,3
263,26,1.473684,4.904943,10.115385,2.026616,6,0.475285,2.026616,1.764259,1.577947,0.939163,0.418251,0.323194,0.125475,0.212928,0.034221,0,3
453,51,1.222222,4.593819,8.882353,1.940397,4,0.454746,1.940397,1.697572,1.399558,0.827815,0.333333,0.249448,0.145695,0.249448,0.030905,0,3
277,30,2.227273,4.67509,9.233333,1.895307,6,0.494585,1.895307,1.620939,1.353791,0.808664,0.422383,0.32491,0.101083,0.176895,0.039711,0.00722,3
531,64,1.911111,4.838041,8.296875,2.056497,20,0.427495,2.056497,1.730697,1.608286,0.888889,0.344633,0.26177,0.122411,0.19209,0.028249,0,3
674,56,1.354167,5.259644,12.035714,2.148368,22,0.553412,2.148368,1.918398,1.737389,1.014837,0.449555,0.332344,0.172107,0.243323,0.032641,0,3
1072,125,1.28125,4.748134,8.576,1.994403,29,0.446828,1.994403,1.787313,1.459888,0.870336,0.387127,0.308769,0.111007,0.223881,0.028918,0,3
121,11,1.545455,5.016529,11,2.115702,7,0.380165,2.115702,1.917355,1.677686,0.958678,0.305785,0.256198,0.082645,0.157025,0.016529,0,3
207,26,1.363636,4.714976,7.961538,1.942029,7,0.468599,1.942029,1.7343,1.47343,0.922705,0.362319,0.280193,0.164251,0.270531,0.024155,0,3
371,48,1.125,4.867925,7.729167,2.059299,15,0.415094,2.059299,1.781671,1.58221,0.87062,0.315364,0.250674,0.115903,0.191375,0.005391,0,3
471,38,1.189189,4.698514,12.394737,1.957537,11,0.545648,1.957537,1.609342,1.433121,0.806794,0.420382,0.246285,0.167728,0.273885,0.070064,0.002123,3
671,87,1.414286,5.050671,7.712644,2.150522,18,0.368107,2.150522,1.912072,1.687034,0.983607,0.28614,0.222057,0.113264,0.184799,0.017884,0.002981,3
400,86,1.660377,5.06,4.651163,2.145,17,0.425,2.145,1.82,1.7075,1,0.3625,0.25,0.14,0.2275,0.015,0.005,3
150,20,1.384615,4.973333,7.5,2.126667,6,0.393333,2.126667,1.913333,1.58,0.966667,0.36,0.253333,0.146667,0.226667,0.04,0.006667,3
2075,172,1.432099,4.691084,12.063953,1.976386,49,0.453976,1.976386,1.698313,1.445301,0.824578,0.340723,0.240964,0.115663,0.218313,0.034217,0.001446,3
495,55,1.346939,4.907071,9,2.014141,11,0.535354,2.014141,1.735354,1.573737,0.931313,0.430303,0.292929,0.167677,0.224242,0.030303,0,3
110,9,0,5.227273,12.222222,2.163636,5,0.545455,2.163636,1.909091,1.718182,1,0.445455,0.336364,0.109091,0.2,0.018182,0,3
434,56,1.5,4.59447,7.75,2.002304,11,0.354839,2.002304,1.695853,1.456221,0.827189,0.278802,0.223502,0.087558,0.158986,0.009217,0,3
