% Merged features for bikol
@RELATION readability_bikol

@ATTRIBUTE word_count NUMERIC
@ATTRIBUTE sentence_count NUMERIC
@ATTRIBUTE phrase_count_per_sentence NUMERIC
@ATTRIBUTE average_word_len NUMERIC
@ATTRIBUTE average_sentence_len NUMERIC
@ATTRIBUTE average_syllable_count NUMERIC
@ATTRIBUTE polysyll_count NUMERIC
@ATTRIBUTE consonant_cluster_density NUMERIC
@ATTRIBUTE v_density NUMERIC
@ATTRIBUTE cv_density NUMERIC
@ATTRIBUTE vc_density NUMERIC
@ATTRIBUTE cvc_density NUMERIC
@ATTRIBUTE vcc_density NUMERIC
@ATTRIBUTE cvcc_density NUMERIC
@ATTRIBUTE ccvc_density NUMERIC
@ATTRIBUTE ccv_density NUMERIC
@ATTRIBUTE ccvcc_density NUMERIC
@ATTRIBUTE ccvccc_density NUMERIC
@ATTRIBUTE tagalog_bigram_sim NUMERIC
@ATTRIBUTE bikol_bigram_sim NUMERIC
@ATTRIBUTE cebuano_bigram_sim NUMERIC
@ATTRIBUTE tagalog_trigram_sim NUMERIC
@ATTRIBUTE bikol_trigram_sim NUMERIC
@ATTRIBUTE cebuano_trigam_sim NUMERIC
@ATTRIBUTE class {1, 2, 3}

@DATA
175,22,1.8571428571428568,4.805714285714286,7.954545454545454,2.142857142857143,1,0.3485714285714286,2.142857142857143,1.7885714285714285,1.4457142857142855,0.8342857142857143,0.2571428571428571,0.2342857142857143,0.1028571428571428,0.2171428571428571,0.0228571428571428,0.0,0.7409638554216867,0.7469879518072289,0.7469879518072289,0.7392197125256673,0.6940451745379876,0.6694045174537988,1
146,16,1.1428571428571428,4.623287671232877,9.125,1.917808219178082,1,0.4931506849315068,1.917808219178082,1.6643835616438356,1.3972602739726028,0.8424657534246576,0.4383561643835616,0.3424657534246575,0.2054794520547945,0.3493150684931507,0.0958904109589041,0.0,0.6812977099236641,0.6755725190839694,0.6431297709923665,0.5764075067024129,0.6166219839142091,0.514745308310992,1
108,15,0.0,4.564814814814815,7.2,2.009259259259259,0,0.2685185185185185,2.009259259259259,1.805555555555556,1.3148148148148149,0.8611111111111112,0.2407407407407407,0.1944444444444444,0.1203703703703703,0.1759259259259259,0.0,0.0,0.59375,0.546875,0.6067708333333334,0.5163636363636364,0.6,0.5018181818181818,1
77,12,1.0833333333333333,4.623376623376624,6.416666666666667,1.974025974025974,3,0.4805194805194805,1.974025974025974,1.8051948051948048,1.2727272727272727,0.8701298701298701,0.4025974025974026,0.3506493506493506,0.1688311688311688,0.4415584415584415,0.0129870129870129,0.0,0.6028880866425993,0.6498194945848376,0.5848375451263538,0.5353535353535354,0.5909090909090909,0.4696969696969697,1
102,23,1.2,4.53921568627451,4.434782608695652,2.07843137254902,4,0.4019607843137255,2.07843137254902,1.607843137254902,1.2941176470588236,0.6274509803921569,0.3529411764705882,0.2156862745098039,0.1568627450980392,0.284313725490196,0.0784313725490196,0.0098039215686274,0.6371191135734072,0.6426592797783933,0.6509695290858726,0.583011583011583,0.61003861003861,0.5598455598455598,1
179,15,2.8181818181818183,4.625698324022347,11.933333333333334,2.016759776536313,1,0.2905027932960894,2.016759776536313,1.7541899441340782,1.4301675977653632,0.8938547486033519,0.2681564245810056,0.2234636871508379,0.1396648044692737,0.2290502793296089,0.0335195530726257,0.0,0.6348228043143297,0.650231124807396,0.6209553158705701,0.6085106382978723,0.6638297872340425,0.5702127659574469,1
244,67,1.619047619047619,4.913934426229508,3.6417910447761193,2.122950819672131,10,0.4549180327868852,2.122950819672131,1.6926229508196722,1.4262295081967211,0.8442622950819673,0.3114754098360656,0.2090163934426229,0.1844262295081967,0.319672131147541,0.0450819672131147,0.0081967213114754,0.5631067961165048,0.5706580366774542,0.5663430420711975,0.516030534351145,0.5282442748091603,0.4580152671755725,1
89,18,1.4166666666666667,4.561797752808989,4.944444444444445,1.9213483146067416,0,0.3932584269662921,1.9213483146067416,1.651685393258427,1.449438202247191,0.7865168539325843,0.348314606741573,0.2921348314606741,0.0674157303370786,0.1348314606741573,0.0112359550561797,0.0,0.6561514195583596,0.6750788643533123,0.6561514195583596,0.5482456140350878,0.6754385964912281,0.5921052631578947,1
245,37,1.3333333333333333,4.277551020408163,6.621621621621622,1.853061224489796,0,0.236734693877551,1.853061224489796,1.3959183673469389,1.579591836734694,0.8571428571428571,0.2040816326530612,0.1877551020408163,0.0897959183673469,0.1632653061224489,0.0081632653061224,0.0,0.7198007471980075,0.7334993773349938,0.7222914072229141,0.7043010752688172,0.7670250896057348,0.6164874551971327,1
74,11,1.1666666666666667,4.608108108108108,6.727272727272728,1.9594594594594597,0,0.5,1.9594594594594597,1.7297297297297298,1.351351351351351,1.0,0.3783783783783784,0.3513513513513513,0.2027027027027027,0.3648648648648648,0.1351351351351351,0.0,0.6816479400749064,0.700374531835206,0.651685393258427,0.6839378238341969,0.7357512953367875,0.533678756476684,1
182,15,1.2666666666666666,4.84065934065934,12.133333333333333,2.0824175824175826,4,0.412087912087912,2.0824175824175826,1.6868131868131868,1.5714285714285714,0.8791208791208791,0.3296703296703296,0.2417582417582417,0.1868131868131868,0.2912087912087912,0.0384615384615384,0.0109890109890109,0.6323319027181689,0.6280400572246065,0.6123032904148784,0.5222437137330754,0.6015473887814313,0.5067698259187621,1
44,11,1.6,5.340909090909091,4.0,2.227272727272727,4,0.5909090909090909,2.227272727272727,1.75,1.9090909090909087,1.1136363636363635,0.5227272727272727,0.4318181818181818,0.3863636363636363,0.4545454545454545,0.0227272727272727,0.0,0.6684210526315789,0.6631578947368421,0.6947368421052632,0.6530612244897959,0.7278911564625851,0.6122448979591837,1
188,27,1.5416666666666667,4.164893617021277,6.962962962962963,1.872340425531915,3,0.2446808510638297,1.872340425531915,1.6063829787234043,1.2606382978723405,0.7553191489361702,0.2180851063829787,0.1595744680851064,0.1223404255319148,0.1914893617021276,0.026595744680851,0.0,0.6902356902356902,0.6919191919191919,0.6767676767676768,0.5802469135802469,0.6419753086419753,0.5654320987654321,1
173,14,1.7333333333333334,4.699421965317919,12.357142857142858,1.953757225433526,4,0.4277456647398844,1.953757225433526,1.6127167630057804,1.5202312138728324,0.9364161849710982,0.3410404624277456,0.2658959537572254,0.1965317919075144,0.2947976878612717,0.0693641618497109,0.0115606936416184,0.6416275430359938,0.6353677621283255,0.6071987480438185,0.5802997858672377,0.6552462526766595,0.5674518201284796,1
157,22,1.9411764705882355,4.490445859872612,7.136363636363637,1.9681528662420384,0,0.3248407643312102,1.9681528662420384,1.6624203821656052,1.4267515923566878,0.821656050955414,0.2993630573248407,0.2420382165605095,0.1528662420382165,0.2356687898089172,0.0382165605095541,0.0,0.7208029197080292,0.7135036496350365,0.7043795620437956,0.6214833759590793,0.6777493606138107,0.578005115089514,1
122,13,1.1538461538461535,5.122950819672131,9.384615384615383,2.1557377049180326,4,0.4754098360655737,2.1557377049180326,1.778688524590164,1.713114754098361,0.9836065573770492,0.4016393442622951,0.3114754098360656,0.2622950819672131,0.3442622950819672,0.0327868852459016,0.0,0.6274900398406374,0.5956175298804781,0.5936254980079682,0.5340314136125655,0.5445026178010471,0.5052356020942408,1
88,14,1.25,4.977272727272728,6.285714285714286,2.125,4,0.3636363636363636,2.125,1.818181818181818,1.681818181818182,0.9772727272727272,0.3068181818181818,0.2727272727272727,0.1136363636363636,0.1590909090909091,0.0113636363636363,0.0,0.7685714285714286,0.7285714285714285,0.7485714285714286,0.7213740458015268,0.8091603053435115,0.6870229007633588,1
196,20,1.1904761904761905,4.709183673469388,9.8,2.056122448979592,5,0.3877551020408163,2.056122448979592,1.6173469387755102,1.510204081632653,0.8367346938775511,0.336734693877551,0.2755102040816326,0.1530612244897959,0.2397959183673469,0.0408163265306122,0.0051020408163265,0.7121212121212122,0.7121212121212122,0.6790633608815427,0.6090225563909775,0.6033834586466166,0.5714285714285714,1
149,17,1.1764705882352942,4.302013422818792,8.764705882352942,1.919463087248322,2,0.2483221476510067,1.919463087248322,1.6979865771812082,1.2147651006711409,0.7718120805369127,0.2147651006711409,0.1946308724832214,0.0939597315436241,0.174496644295302,0.0134228187919463,0.0,0.7459349593495935,0.7317073170731707,0.741869918699187,0.6997084548104956,0.7317784256559767,0.6326530612244898,1
414,30,1.3103448275862069,5.258454106280193,13.8,2.154589371980676,20,0.5410628019323671,2.154589371980676,1.9734299516908211,1.642512077294686,1.0555555555555556,0.4468599033816425,0.357487922705314,0.2536231884057971,0.4106280193236715,0.0869565217391304,0.0096618357487922,0.6857142857142857,0.668,0.6805714285714286,0.6045283018867924,0.6415094339622641,0.5381132075471698,1
109,15,1.5,4.4495412844036695,7.266666666666667,1.8990825688073396,2,0.3669724770642202,1.8990825688073396,1.5963302752293578,1.3944954128440368,0.8165137614678899,0.2752293577981651,0.2293577981651376,0.146788990825688,0.2935779816513761,0.018348623853211,0.0,0.6622340425531915,0.699468085106383,0.6702127659574468,0.6367041198501873,0.7340823970037453,0.5767790262172284,1
231,22,1.2272727272727273,5.021645021645021,10.5,2.090909090909091,11,0.4891774891774891,2.090909090909091,1.792207792207792,1.6147186147186148,0.8398268398268398,0.3593073593073593,0.3203463203463203,0.1731601731601731,0.303030303030303,0.0216450216450216,0.0086580086580086,0.761646803900325,0.7648970747562297,0.7605633802816901,0.7248908296943232,0.7467248908296943,0.7510917030567685,1
361,41,1.1290322580645162,4.878116343490305,8.804878048780488,2.063711911357341,13,0.4487534626038781,2.063711911357341,1.700831024930748,1.548476454293629,0.8587257617728532,0.3240997229916897,0.2493074792243767,0.1994459833795014,0.296398891966759,0.0609418282548476,0.0110803324099723,0.6432664756446992,0.6389684813753582,0.6303724928366762,0.5754352030947776,0.620889748549323,0.5531914893617021,1
47,10,0.0,5.74468085106383,4.7,2.276595744680851,1,0.6170212765957447,2.276595744680851,2.234042553191489,1.893617021276596,1.297872340425532,0.574468085106383,0.5531914893617021,0.2765957446808511,0.3191489361702128,0.0425531914893617,0.0,0.8295964125560538,0.7757847533632287,0.8340807174887892,0.8125,0.8806818181818182,0.7727272727272727,1
81,12,1.3333333333333333,4.3580246913580245,6.75,1.839506172839506,0,0.2839506172839506,1.839506172839506,1.7160493827160497,1.345679012345679,0.8888888888888888,0.2839506172839506,0.2592592592592592,0.037037037037037,0.0617283950617283,0.0123456790123456,0.0,0.6801470588235294,0.6875,0.6323529411764706,0.5654450261780105,0.6701570680628273,0.5916230366492147,1
114,25,1.0666666666666669,5.2368421052631575,4.56,2.149122807017544,2,0.4649122807017544,2.149122807017544,1.9298245614035088,1.7982456140350878,1.0964912280701755,0.4385964912280701,0.4035087719298245,0.1666666666666666,0.2543859649122807,0.0263157894736842,0.0,0.7536231884057971,0.8074534161490683,0.7412008281573499,0.7371273712737128,0.8319783197831978,0.6612466124661247,1
52,8,1.125,4.884615384615385,6.5,2.1346153846153846,5,0.3269230769230769,2.1346153846153846,2.019230769230769,1.2692307692307692,0.9807692307692308,0.3076923076923077,0.2884615384615384,0.1153846153846153,0.3076923076923077,0.0192307692307692,0.0,0.4900990099009901,0.5198019801980198,0.504950495049505,0.5066666666666667,0.58,0.5266666666666666,1
110,13,1.4,5.236363636363636,8.461538461538462,2.118181818181818,4,0.5636363636363636,2.118181818181818,1.8545454545454545,1.6454545454545455,1.009090909090909,0.4272727272727272,0.3545454545454545,0.1909090909090909,0.4181818181818181,0.0545454545454545,0.009090909090909,0.7067833698030634,0.7045951859956237,0.6608315098468271,0.6424418604651163,0.6395348837209303,0.5784883720930233,1
219,27,1.0454545454545454,5.19634703196347,8.11111111111111,2.105022831050228,10,0.6073059360730594,2.105022831050228,1.6849315068493151,1.639269406392694,0.9863013698630136,0.4748858447488584,0.3378995433789954,0.3059360730593607,0.4337899543378995,0.1187214611872146,0.0182648401826484,0.5720524017467249,0.5764192139737991,0.5491266375545851,0.4841954022988505,0.5675287356321839,0.4640804597701149,1
12,1,2.0,5.833333333333333,12.0,2.5,2,0.6666666666666666,2.5,2.0,2.0,1.1666666666666667,0.5833333333333334,0.5,0.1666666666666666,0.25,0.0,0.0,0.6842105263157895,0.7192982456140351,0.7017543859649122,0.6818181818181818,0.7272727272727273,0.7045454545454546,1
206,30,1.5555555555555556,4.344660194174757,6.866666666666666,1.8446601941747571,0,0.3543689320388349,1.8446601941747571,1.635922330097087,1.2572815533980584,0.8106796116504854,0.2718446601941747,0.2572815533980582,0.1310679611650485,0.233009708737864,0.0485436893203883,0.0,0.6918604651162791,0.6497093023255814,0.6787790697674418,0.6257796257796258,0.6070686070686071,0.5696465696465697,1
72,7,1.75,4.819444444444445,10.285714285714286,2.138888888888889,4,0.3472222222222222,2.138888888888889,1.7777777777777777,1.5277777777777777,0.9444444444444444,0.2638888888888889,0.1527777777777778,0.1944444444444444,0.2916666666666667,0.0416666666666666,0.0,0.6470588235294118,0.6286764705882353,0.625,0.5939086294416244,0.6446700507614214,0.5634517766497462,1
198,29,1.7857142857142858,4.41919191919192,6.827586206896552,1.9848484848484849,1,0.2525252525252525,1.9848484848484849,1.808080808080808,1.2575757575757576,0.7626262626262627,0.1919191919191919,0.1212121212121212,0.1515151515151515,0.2121212121212121,0.0151515151515151,0.0,0.6957163958641064,0.689807976366322,0.6602658788774003,0.5490605427974948,0.6576200417536534,0.511482254697286,1
263,36,1.5769230769230769,4.817490494296578,7.305555555555555,2.0950570342205324,0,0.3650190114068441,2.0950570342205324,1.855513307984791,1.5171102661596958,0.9277566539923956,0.3231939163498099,0.3003802281368821,0.1673003802281368,0.2699619771863117,0.0152091254752851,0.0,0.6922310756972112,0.6842629482071713,0.6643426294820717,0.6423751686909581,0.6747638326585695,0.6194331983805668,1
93,20,1.6666666666666667,4.419354838709677,4.65,1.8494623655913975,0,0.4946236559139785,1.8494623655913975,1.5591397849462365,1.1827956989247312,0.7634408602150538,0.4408602150537634,0.3548387096774194,0.1182795698924731,0.3548387096774194,0.043010752688172,0.0,0.6257861635220126,0.6226415094339622,0.6226415094339622,0.5555555555555556,0.6177777777777778,0.4888888888888889,1
209,11,2.083333333333333,4.866028708133971,19.0,2.014354066985646,3,0.4593301435406698,2.014354066985646,1.708133971291866,1.5406698564593302,0.9234449760765552,0.416267942583732,0.3588516746411483,0.2488038277511961,0.3349282296650718,0.0717703349282296,0.0287081339712918,0.6138613861386139,0.6113861386138614,0.6051980198019802,0.5548172757475083,0.5913621262458472,0.521594684385382,1
214,40,0.0,4.696261682242991,5.35,1.94392523364486,1,0.5467289719626168,1.94392523364486,1.5654205607476634,1.485981308411215,0.7990654205607477,0.4906542056074766,0.322429906542056,0.116822429906542,0.2149532710280373,0.0186915887850467,0.0,0.661188369152971,0.6675094816687737,0.6219974715549936,0.5667244367417678,0.6620450606585788,0.5736568457538995,1
152,13,1.0769230769230769,5.059210526315789,11.692307692307692,2.046052631578948,7,0.631578947368421,2.046052631578948,1.6907894736842106,1.506578947368421,0.8881578947368421,0.506578947368421,0.3486842105263157,0.2894736842105263,0.4539473684210526,0.131578947368421,0.0263157894736842,0.5810147299509002,0.5875613747954174,0.5646481178396072,0.4967032967032967,0.5604395604395604,0.4703296703296703,1
432,47,1.8461538461538465,4.597222222222222,9.191489361702128,2.039351851851852,12,0.3449074074074074,2.039351851851852,1.787037037037037,1.3148148148148149,0.8240740740740741,0.2731481481481481,0.2106481481481481,0.1481481481481481,0.2662037037037037,0.0486111111111111,0.0023148148148148,0.6664503569110967,0.6690460739779364,0.6683971447112265,0.6231751824817519,0.6450729927007299,0.6031021897810219,1
105,12,2.0,4.485714285714286,8.75,1.9714285714285715,1,0.3142857142857143,1.9714285714285715,1.6571428571428573,1.4095238095238096,0.8952380952380953,0.2761904761904762,0.2,0.1714285714285714,0.2571428571428571,0.0476190476190476,0.0,0.6371191135734072,0.631578947368421,0.6232686980609419,0.5697211155378487,0.5776892430278885,0.5936254980079682,1
62,10,1.875,4.548387096774194,6.2,1.8548387096774197,0,0.4838709677419355,1.8548387096774197,1.435483870967742,1.5,0.8064516129032258,0.3064516129032258,0.3064516129032258,0.1612903225806451,0.3709677419354839,0.1129032258064516,0.0,0.6227272727272727,0.6136363636363636,0.6318181818181818,0.5253164556962026,0.6518987341772152,0.3987341772151899,1
292,46,1.0344827586206895,4.859589041095891,6.3478260869565215,2.037671232876712,11,0.4691780821917808,2.037671232876712,1.6917808219178083,1.5205479452054795,0.8972602739726028,0.386986301369863,0.3150684931506849,0.2157534246575342,0.3116438356164384,0.0513698630136986,0.0136986301369863,0.672,0.664,0.6595555555555556,0.5834333733493398,0.6182472989195679,0.5714285714285714,1
107,15,1.0909090909090908,4.08411214953271,7.133333333333334,1.6635514018691588,0,0.4018691588785046,1.6635514018691588,1.5420560747663552,1.1121495327102804,0.719626168224299,0.2990654205607476,0.2990654205607476,0.0747663551401869,0.3271028037383177,0.02803738317757,0.0,0.5666666666666667,0.5848484848484848,0.6151515151515151,0.6311111111111111,0.6533333333333333,0.6044444444444445,1
75,10,0.0,4.693333333333333,7.5,1.9733333333333332,2,0.5066666666666667,1.9733333333333332,1.6666666666666667,1.44,0.8266666666666667,0.48,0.2933333333333333,0.1866666666666666,0.28,0.1333333333333333,0.0,0.6847826086956522,0.6485507246376812,0.605072463768116,0.58,0.705,0.525,1
61,9,0.0,4.180327868852459,6.777777777777778,1.7704918032786885,2,0.1639344262295081,1.7704918032786885,1.4098360655737705,1.5081967213114753,0.8524590163934426,0.1311475409836065,0.081967213114754,0.0655737704918032,0.1311475409836065,0.0,0.0,0.7409326424870466,0.6994818652849741,0.5699481865284974,0.5114503816793893,0.4122137404580153,0.4045801526717557,1
223,12,1.3333333333333333,4.457399103139013,18.58333333333333,1.9506726457399104,3,0.3542600896860987,1.9506726457399104,1.5919282511210762,1.3273542600896862,0.7623318385650224,0.3318385650224215,0.2286995515695067,0.147982062780269,0.210762331838565,0.0179372197309417,0.0044843049327354,0.6749024707412223,0.6710013003901171,0.6749024707412223,0.6556776556776557,0.6391941391941391,0.6043956043956044,1
20,0,0.0,5.55,20.0,2.3,0,0.55,2.3,2.05,1.85,1.05,0.55,0.55,0.1,0.15,0.05,0.0,0.7,0.6333333333333333,0.6333333333333333,0.7101449275362319,0.6666666666666666,0.7101449275362319,1
123,9,1.4444444444444444,4.666666666666667,13.666666666666666,1.91869918699187,0,0.4227642276422764,1.91869918699187,1.7886178861788615,1.4390243902439024,0.983739837398374,0.3902439024390244,0.3414634146341463,0.1869918699186991,0.3252032520325203,0.040650406504065,0.0,0.6993318485523385,0.7260579064587973,0.6859688195991092,0.6358024691358025,0.6574074074074074,0.6419753086419753,1
119,9,1.2222222222222223,4.411764705882353,13.22222222222222,1.9747899159663864,0,0.134453781512605,1.9747899159663864,1.7647058823529411,1.487394957983193,0.8991596638655462,0.0840336134453781,0.0756302521008403,0.1008403361344537,0.1260504201680672,0.0084033613445378,0.0,0.8383084577114428,0.818407960199005,0.8009950248756219,0.7956989247311828,0.7670250896057348,0.7741935483870968,1
204,17,0.0,4.936274509803922,12.0,2.07843137254902,4,0.3970588235294117,2.07843137254902,1.897058823529412,1.593137254901961,0.9705882352941176,0.3627450980392157,0.3333333333333333,0.1470588235294117,0.196078431372549,0.0539215686274509,0.0,0.773067331670823,0.7082294264339152,0.7506234413965087,0.7386934673366834,0.7437185929648241,0.6867671691792295,1
56,12,1.0833333333333333,5.767857142857143,4.666666666666667,2.446428571428572,1,0.5892857142857143,2.446428571428572,2.0357142857142856,1.9285714285714288,1.1071428571428572,0.5178571428571429,0.4464285714285714,0.2678571428571428,0.3571428571428571,0.0714285714285714,0.0178571428571428,0.704119850187266,0.7116104868913857,0.6928838951310862,0.6824644549763034,0.7440758293838863,0.7203791469194313,1
192,18,1.5625,4.984375,10.666666666666666,2.0416666666666665,0,0.5833333333333334,2.0416666666666665,1.7291666666666667,1.4270833333333333,0.7916666666666666,0.53125,0.3645833333333333,0.1354166666666666,0.2760416666666667,0.0208333333333333,0.0,0.7378768020969856,0.7483617300131061,0.7391874180865007,0.7082601054481547,0.8014059753954306,0.7135325131810193,1
142,18,2.142857142857143,4.415492957746479,7.888888888888889,1.9154929577464788,1,0.4225352112676056,1.9154929577464788,1.6267605633802815,1.2746478873239435,0.7676056338028169,0.3028169014084507,0.3028169014084507,0.1197183098591549,0.2464788732394366,0.0633802816901408,0.0,0.7086776859504132,0.6549586776859504,0.6983471074380165,0.6598240469208211,0.6803519061583577,0.5894428152492669,1
227,47,1.25,4.224669603524229,4.829787234042553,1.7973568281938326,2,0.158590308370044,1.7973568281938326,1.5814977973568285,1.4052863436123348,0.8325991189427313,0.1277533039647577,0.1145374449339207,0.0881057268722467,0.1277533039647577,0.013215859030837,0.0,0.5860655737704918,0.5806010928961749,0.5614754098360656,0.5663366336633663,0.5207920792079208,0.5188118811881188,1
147,20,1.05,5.115646258503402,7.35,2.108843537414966,1,0.6122448979591837,2.108843537414966,1.816326530612245,1.5850340136054422,1.0,0.5850340136054422,0.4217687074829932,0.2448979591836734,0.4217687074829932,0.1292517006802721,0.0,0.6466666666666666,0.62,0.5933333333333334,0.6205357142857143,0.6227678571428571,0.5111607142857143,1
120,11,1.4545454545454546,4.666666666666667,10.909090909090908,2.0166666666666666,3,0.3166666666666666,2.0166666666666666,1.7416666666666667,1.55,0.975,0.3083333333333333,0.2583333333333333,0.1666666666666666,0.2,0.0333333333333333,0.0,0.7648401826484018,0.7990867579908676,0.7853881278538812,0.6867088607594937,0.740506329113924,0.6582278481012658,1
304,31,1.5384615384615383,4.677631578947368,9.806451612903226,2.0,14,0.4309210526315789,2.0,1.6414473684210529,1.4736842105263157,0.8453947368421053,0.3519736842105263,0.2730263157894737,0.1776315789473684,0.3026315789473684,0.0526315789473684,0.0032894736842105,0.6402877697841727,0.6276978417266187,0.6258992805755396,0.5631188118811881,0.6287128712871287,0.5433168316831684,1
178,32,1.2608695652173914,4.882022471910112,5.5625,2.0786516853932584,5,0.3651685393258427,2.0786516853932584,1.915730337078652,1.4662921348314606,0.9887640449438202,0.3258426966292135,0.2584269662921348,0.1685393258426966,0.2696629213483146,0.0280898876404494,0.0,0.6519823788546255,0.7004405286343612,0.6666666666666666,0.6348884381338742,0.7261663286004056,0.5456389452332657,1
88,25,0.0,4.113636363636363,3.52,1.8522727272727275,3,0.25,1.8522727272727275,1.375,1.443181818181818,0.75,0.2272727272727272,0.2272727272727272,0.0795454545454545,0.1363636363636363,0.0,0.0,0.7700729927007299,0.7445255474452555,0.7408759124087592,0.7112299465240641,0.6737967914438503,0.6844919786096256,1
80,14,1.2727272727272727,4.3875,5.714285714285714,1.875,0,0.2875,1.875,1.7125,1.3625,0.8625,0.225,0.2125,0.0875,0.2125,0.0125,0.0,0.7121771217712177,0.7343173431734318,0.7195571955719557,0.6492146596858639,0.6596858638743456,0.643979057591623,1
67,17,0.0,3.791044776119403,3.941176470588236,1.7761194029850746,0,0.1940298507462686,1.7761194029850746,1.373134328358209,1.1194029850746268,0.5970149253731343,0.1791044776119403,0.0597014925373134,0.044776119402985,0.0746268656716417,0.0149253731343283,0.0,0.7112299465240641,0.6363636363636364,0.6737967914438503,0.55,0.6083333333333333,0.4916666666666666,1
46,9,0.0,4.717391304347826,5.111111111111111,1.9565217391304348,4,0.391304347826087,1.9565217391304348,1.8043478260869563,1.3695652173913044,0.9130434782608696,0.3478260869565217,0.2391304347826087,0.108695652173913,0.1739130434782608,0.0434782608695652,0.0217391304347826,0.6608187134502924,0.6491228070175439,0.6081871345029239,0.568,0.544,0.512,1
91,25,0.0,4.923076923076923,3.64,2.087912087912088,1,0.3846153846153846,2.087912087912088,2.021978021978022,1.4505494505494505,1.098901098901099,0.3626373626373626,0.2637362637362637,0.1978021978021978,0.3296703296703296,0.1208791208791208,0.0,0.5910364145658263,0.5630252100840336,0.5462184873949579,0.6466165413533834,0.6466165413533834,0.5864661654135338,1
211,31,1.4090909090909092,4.545023696682464,6.806451612903226,2.023696682464455,4,0.2417061611374407,2.023696682464455,1.7630331753554502,1.4360189573459716,0.8767772511848341,0.2180094786729857,0.1753554502369668,0.1137440758293838,0.1990521327014218,0.0236966824644549,0.0,0.6595174262734584,0.6219839142091153,0.6179624664879356,0.5794392523364486,0.6018691588785047,0.5495327102803739,1
223,11,1.6666666666666667,4.659192825112108,20.272727272727277,1.9327354260089689,5,0.5246636771300448,1.9327354260089689,1.6322869955156951,1.4080717488789238,0.9103139013452914,0.4573991031390134,0.3408071748878923,0.242152466367713,0.3318385650224215,0.0582959641255605,0.0089686098654708,0.6625615763546798,0.6798029556650246,0.6539408866995073,0.5969387755102041,0.6292517006802721,0.5391156462585034,1
134,22,0.0,4.67910447761194,6.090909090909091,1.992537313432836,2,0.4029850746268656,1.992537313432836,1.7761194029850746,1.4328358208955223,0.9402985074626866,0.373134328358209,0.3432835820895522,0.0970149253731343,0.1567164179104477,0.0223880597014925,0.0074626865671641,0.7655601659751037,0.7634854771784232,0.7344398340248963,0.744807121661721,0.7329376854599406,0.7626112759643917,1
230,23,1.7777777777777777,4.743478260869566,10.0,2.0217391304347827,3,0.417391304347826,2.0217391304347827,1.7304347826086957,1.508695652173913,0.8652173913043478,0.3478260869565217,0.2782608695652174,0.1565217391304348,0.2913043478260869,0.017391304347826,0.0,0.7259001161440186,0.7293844367015099,0.7096399535423926,0.716323296354992,0.7702060221870047,0.6513470681458003,1
89,23,2.2,4.584269662921348,3.869565217391304,2.02247191011236,0,0.2247191011235955,2.02247191011236,1.820224719101124,1.4157303370786516,0.8876404494382022,0.1573033707865168,0.1573033707865168,0.0898876404494382,0.1797752808988764,0.0,0.0,0.5736677115987461,0.5987460815047022,0.5736677115987461,0.5478260869565217,0.5695652173913044,0.5304347826086957,1
257,55,1.3888888888888888,5.175097276264592,4.672727272727273,2.1439688715953307,4,0.556420233463035,2.1439688715953307,1.90272373540856,1.5914396887159532,1.0116731517509727,0.4552529182879377,0.3968871595330739,0.2217898832684824,0.4435797665369649,0.0583657587548638,0.0233463035019455,0.5878504672897197,0.6233644859813084,0.6018691588785047,0.4882860665844636,0.5400739827373613,0.437731196054254,2
428,67,1.6153846153846154,4.591121495327103,6.388059701492537,1.9158878504672896,8,0.4299065420560747,1.9158878504672896,1.616822429906542,1.4485981308411215,0.866822429906542,0.2943925233644859,0.2593457943925233,0.2079439252336448,0.3294392523364486,0.0397196261682243,0.0023364485981308,0.5852384062704115,0.5930764206401045,0.5754408883082952,0.5049954586739328,0.5367847411444142,0.4659400544959128,2
596,43,1.4210526315789471,4.827181208053691,13.86046511627907,2.01510067114094,19,0.4748322147651007,2.01510067114094,1.7466442953020134,1.483221476510067,0.8708053691275168,0.348993288590604,0.3036912751677852,0.1593959731543624,0.3590604026845637,0.0318791946308724,0.0,0.6863436123348018,0.7264317180616741,0.6814977973568281,0.6544471153846154,0.6899038461538461,0.6087740384615384,2
206,57,1.4583333333333333,4.757281553398058,3.6140350877192975,2.0194174757281558,4,0.4660194174757281,2.0194174757281558,1.699029126213592,1.3689320388349515,0.8155339805825242,0.3398058252427184,0.2621359223300971,0.2087378640776699,0.3834951456310679,0.0922330097087378,0.0,0.5369649805447471,0.5343709468223087,0.5382619974059663,0.4404973357015986,0.4422735346358792,0.3836589698046181,2
219,31,1.3703703703703705,4.292237442922374,7.064516129032258,1.8493150684931507,0,0.319634703196347,1.8493150684931507,1.538812785388128,1.3424657534246576,0.7168949771689498,0.2968036529680365,0.2465753424657534,0.1278538812785388,0.1780821917808219,0.0228310502283105,0.0,0.7600554785020804,0.7558945908460472,0.7545076282940361,0.6023856858846919,0.7137176938369781,0.6063618290258449,2
114,15,1.5333333333333334,4.921052631578948,7.6,2.210526315789474,4,0.3333333333333333,2.210526315789474,1.8771929824561404,1.5614035087719298,0.9473684210526316,0.2894736842105263,0.2105263157894736,0.1052631578947368,0.2017543859649122,0.0263157894736842,0.0,0.70917225950783,0.7181208053691275,0.6711409395973155,0.6546546546546547,0.7267267267267268,0.6096096096096096,2
286,47,1.6,5.06993006993007,6.085106382978723,2.129370629370629,15,0.465034965034965,2.129370629370629,1.867132867132867,1.6013986013986017,1.0174825174825175,0.4020979020979021,0.3601398601398601,0.2237762237762237,0.3391608391608391,0.0349650349650349,0.0034965034965034,0.6862068965517242,0.7094827586206897,0.6612068965517242,0.6540664375715922,0.6575028636884307,0.6368843069873997,2
126,55,1.0285714285714285,4.801587301587301,2.290909090909091,1.9285714285714288,2,0.5317460317460317,1.9285714285714288,1.6746031746031746,1.4285714285714286,0.9126984126984128,0.3412698412698413,0.2777777777777778,0.2777777777777778,0.3809523809523809,0.0873015873015873,0.0158730158730158,0.5263157894736842,0.5175438596491229,0.4890350877192982,0.4220183486238532,0.5351681957186545,0.3761467889908257,2
323,45,1.5357142857142858,5.123839009287925,7.177777777777778,2.1578947368421053,13,0.5108359133126935,2.1578947368421053,1.910216718266254,1.585139318885449,1.0278637770897834,0.4396284829721362,0.3560371517027864,0.2693498452012384,0.3869969040247678,0.0804953560371517,0.0,0.6473247927656368,0.6661642803315749,0.6337603617181613,0.612,0.651,0.548,2
266,28,1.5909090909090908,5.022556390977444,9.5,2.1165413533834587,8,0.4924812030075188,2.1165413533834587,1.8796992481203008,1.5225563909774436,0.9699248120300752,0.4210526315789473,0.3684210526315789,0.2218045112781954,0.3947368421052631,0.0338345864661654,0.0075187969924812,0.6874409820585458,0.7063267233238905,0.6666666666666666,0.6675191815856778,0.6982097186700768,0.5971867007672634,2
78,26,1.875,4.615384615384615,3.0,1.9743589743589745,0,0.4487179487179487,1.9743589743589745,1.551282051282051,1.4871794871794872,0.9615384615384616,0.4487179487179487,0.3461538461538461,0.2307692307692307,0.3333333333333333,0.0769230769230769,0.0128205128205128,0.7588652482269503,0.7695035460992907,0.7340425531914894,0.7058823529411765,0.7794117647058824,0.6911764705882353,2
182,40,1.2,4.324175824175824,4.55,1.934065934065934,3,0.2252747252747252,1.934065934065934,1.6868131868131868,1.3186813186813189,0.8076923076923077,0.1813186813186813,0.1538461538461538,0.0934065934065934,0.1648351648351648,0.0219780219780219,0.0,0.7097844112769486,0.6832504145936982,0.6766169154228856,0.7040572792362768,0.711217183770883,0.5871121718377088,2
259,23,2.611111111111111,5.084942084942085,11.26086956521739,2.189189189189189,14,0.3976833976833976,2.189189189189189,1.8803088803088803,1.6525096525096523,0.9498069498069498,0.3359073359073359,0.2664092664092664,0.1505791505791505,0.2741312741312741,0.0347490347490347,0.0,0.7210626185958254,0.7590132827324478,0.7229601518026565,0.6868686868686869,0.7335858585858586,0.6174242424242424,2
355,45,1.631578947368421,4.794366197183098,7.888888888888889,2.0901408450704224,10,0.3605633802816901,2.0901408450704224,1.8619718309859157,1.4929577464788732,0.9323943661971832,0.2788732394366197,0.2394366197183098,0.1746478873239436,0.2676056338028169,0.0366197183098591,0.0,0.637379002233805,0.6574832464631423,0.6195085629188384,0.584349593495935,0.6595528455284553,0.5497967479674797,2
120,28,1.1333333333333333,4.558333333333334,4.285714285714286,2.075,3,0.2583333333333333,2.075,1.775,1.4166666666666667,0.8166666666666667,0.2416666666666666,0.2,0.0833333333333333,0.1416666666666666,0.0,0.0,0.7364705882352941,0.7670588235294118,0.7552941176470588,0.7029702970297029,0.7755775577557755,0.6633663366336634,2
178,26,1.5,4.275280898876405,6.846153846153846,1.8370786516853927,0,0.3089887640449438,1.8370786516853927,1.6348314606741574,1.252808988764045,0.7696629213483146,0.2696629213483146,0.2247191011235955,0.0898876404494382,0.1741573033707865,0.0112359550561797,0.0,0.7560553633217993,0.7560553633217993,0.7076124567474048,0.6868686868686869,0.7348484848484849,0.6111111111111112,2
265,63,1.44,4.845283018867924,4.206349206349207,2.015094339622641,7,0.4490566037735849,2.015094339622641,1.7547169811320755,1.4981132075471697,0.8754716981132076,0.260377358490566,0.2188679245283019,0.1622641509433962,0.2943396226415094,0.060377358490566,0.0037735849056603,0.6187192118226601,0.6443349753694582,0.6137931034482759,0.599195710455764,0.6528150134048257,0.5710455764075067,2
159,33,1.380952380952381,4.49685534591195,4.818181818181818,1.930817610062893,0,0.3333333333333333,1.930817610062893,1.6729559748427674,1.4591194968553458,0.8805031446540881,0.3018867924528302,0.2767295597484276,0.0943396226415094,0.1635220125786163,0.0314465408805031,0.0,0.814748201438849,0.7553956834532374,0.8093525179856115,0.8136020151133502,0.7884130982367759,0.7455919395465995,2
208,29,1.1428571428571428,5.182692307692308,7.172413793103448,2.1826923076923075,9,0.4326923076923077,2.1826923076923075,1.9278846153846156,1.6490384615384617,1.0769230769230769,0.3605769230769231,0.3461538461538461,0.2067307692307692,0.3605769230769231,0.0096153846153846,0.0,0.6829268292682927,0.7177700348432056,0.6759581881533101,0.6780185758513931,0.6795665634674922,0.5835913312693498,2
248,39,2.230769230769231,5.225806451612903,6.358974358974359,2.153225806451613,9,0.4758064516129032,2.153225806451613,1.9758064516129032,1.6612903225806452,1.0362903225806452,0.3346774193548387,0.2620967741935484,0.2741935483870967,0.3790322580645161,0.032258064516129,0.0040322580645161,0.7068466730954677,0.6962391513982642,0.7213114754098361,0.6529562982005142,0.6233933161953727,0.596401028277635,2
158,44,1.2272727272727273,5.006329113924051,3.590909090909091,2.0822784810126582,1,0.4113924050632911,2.0822784810126582,1.816455696202532,1.6645569620253164,0.9620253164556962,0.3544303797468354,0.3037974683544304,0.1645569620253164,0.2468354430379747,0.0253164556962025,0.0,0.7412140575079872,0.7476038338658147,0.7428115015974441,0.7288503253796096,0.7592190889370932,0.6811279826464208,2
161,25,1.3333333333333333,4.670807453416149,6.44,1.9316770186335404,8,0.4782608695652174,1.9316770186335404,1.720496894409938,1.3416149068322982,0.8571428571428571,0.3354037267080745,0.2857142857142857,0.1739130434782608,0.3664596273291925,0.0372670807453416,0.0,0.6308492201039861,0.6724436741767764,0.6187175043327556,0.6131386861313869,0.6277372262773723,0.5669099756690997,2
117,23,1.5714285714285714,4.786324786324786,5.086956521739131,2.1367521367521367,2,0.3504273504273504,2.1367521367521367,1.8205128205128205,1.4871794871794872,0.8717948717948718,0.3076923076923077,0.2478632478632478,0.1111111111111111,0.2307692307692307,0.0341880341880341,0.0,0.6515837104072398,0.6606334841628959,0.6425339366515838,0.6049382716049383,0.6481481481481481,0.558641975308642,2
128,18,1.6,4.0859375,7.111111111111111,1.8359375,4,0.296875,1.8359375,1.578125,1.125,0.6875,0.2109375,0.203125,0.09375,0.171875,0.0,0.0,0.6870229007633588,0.6946564885496184,0.6844783715012722,0.6349809885931559,0.6996197718631179,0.6615969581749049,2
170,29,1.1851851851851851,4.670588235294118,5.862068965517241,2.0647058823529414,6,0.3705882352941176,2.0647058823529414,1.7647058823529411,1.3823529411764706,0.8058823529411765,0.3411764705882353,0.3176470588235294,0.1235294117647058,0.2823529411764706,0.0235294117647058,0.0,0.7275641025641025,0.7115384615384616,0.7131410256410257,0.6945054945054945,0.7142857142857143,0.6637362637362637,2
283,38,1.6071428571428572,5.236749116607774,7.447368421052632,2.183745583038869,18,0.4522968197879858,2.183745583038869,1.9681978798586568,1.6996466431095407,1.0918727915194346,0.3780918727915194,0.3250883392226148,0.215547703180212,0.3392226148409894,0.0494699646643109,0.0,0.732606873428332,0.7359597652975691,0.7150041911148366,0.6968026460859978,0.7221609702315325,0.6582138919514884,2
259,33,1.6,4.532818532818533,7.848484848484849,2.023166023166023,11,0.3513513513513513,2.023166023166023,1.6525096525096523,1.3243243243243243,0.7451737451737451,0.2934362934362934,0.22007722007722,0.1312741312741312,0.2509652509652509,0.0231660231660231,0.0,0.6655737704918033,0.6765027322404371,0.6459016393442623,0.6051829268292683,0.6463414634146342,0.5701219512195121,2
243,14,1.4666666666666666,5.0699588477366255,17.357142857142858,2.1481481481481484,5,0.4979423868312757,2.1481481481481484,1.786008230452675,1.5843621399176957,1.0205761316872428,0.4732510288065844,0.345679012345679,0.2962962962962963,0.3991769547325103,0.0781893004115226,0.0246913580246913,0.6432926829268293,0.6524390243902439,0.6341463414634146,0.557510148849797,0.6427604871447903,0.523680649526387,3
530,41,1.8108108108108107,4.494339622641509,12.926829268292684,1.9924528301886792,10,0.3584905660377358,1.9924528301886792,1.6905660377358491,1.3037735849056604,0.7396226415094339,0.3094339622641509,0.2132075471698113,0.1188679245283018,0.2056603773584905,0.0188679245283018,0.0018867924528301,0.6846944294213089,0.6868577609518659,0.670632774472688,0.6195899772209568,0.6757782839787395,0.5846621108580107,3
437,52,1.3255813953488371,4.910755148741419,8.403846153846153,2.0983981693363845,15,0.4073226544622426,2.0983981693363845,1.8649885583524028,1.5560640732265447,0.9794050343249427,0.3318077803203661,0.2837528604118993,0.1670480549199084,0.2883295194508009,0.0251716247139588,0.0,0.7513227513227513,0.7536743092298648,0.739564961787184,0.7085987261146497,0.7229299363057324,0.6894904458598726,3
639,43,1.8823529411764703,4.60093896713615,14.86046511627907,2.032863849765258,18,0.3145539906103286,2.032863849765258,1.730829420970266,1.4178403755868545,0.8403755868544601,0.2488262910798122,0.2003129890453834,0.1236306729264475,0.2190923317683881,0.028169014084507,0.001564945226917,0.6672473867595818,0.6663763066202091,0.6624564459930313,0.6234866828087167,0.6458837772397095,0.5611380145278451,3
455,24,2.055555555555556,5.237362637362637,18.95833333333333,2.204395604395605,32,0.5472527472527473,2.204395604395605,1.9054945054945052,1.610989010989011,0.956043956043956,0.4505494505494505,0.356043956043956,0.210989010989011,0.3934065934065934,0.0549450549450549,0.0,0.6313315926892951,0.64177545691906,0.6276762402088772,0.5669889502762431,0.6208563535911602,0.5338397790055248,3
179,22,1.7333333333333334,4.804469273743017,8.136363636363637,2.0726256983240225,3,0.3407821229050279,2.0726256983240225,1.7597765363128492,1.6145251396648044,0.905027932960894,0.3128491620111732,0.2346368715083799,0.1396648044692737,0.2346368715083799,0.0335195530726257,0.0055865921787709,0.6863905325443787,0.658284023668639,0.665680473372781,0.6178861788617886,0.6869918699186992,0.5934959349593496,3
921,74,3.02,4.715526601520087,12.445945945945946,2.03800217155266,18,0.3648208469055374,2.03800217155266,1.729641693811075,1.521172638436482,0.9554831704668838,0.3148751357220412,0.2747014115092291,0.1965255157437568,0.2931596091205212,0.0293159609120521,0.003257328990228,0.7064354980899207,0.7079047898912724,0.6902732882750514,0.6448863636363636,0.7065746753246753,0.6213474025974026,3
7,1,0.0,5.428571428571429,7.0,2.2857142857142856,1,0.5714285714285714,2.2857142857142856,1.7142857142857142,1.8571428571428568,0.8571428571428571,0.4285714285714285,0.1428571428571428,0.2857142857142857,0.5714285714285714,0.0,0.0,0.6774193548387096,0.6774193548387096,0.6774193548387096,0.5416666666666666,0.5833333333333334,0.5,3
497,50,2.5,4.865191146881288,9.94,2.116700201207244,7,0.3219315895372233,2.116700201207244,1.891348088531187,1.5191146881287727,0.93158953722334,0.2877263581488933,0.2515090543259557,0.1851106639839034,0.2676056338028169,0.0100603621730382,0.0,0.6823406478578893,0.6687565308254964,0.6739811912225705,0.5776045357902198,0.595322466335932,0.5244507441530829,3
496,49,1.45,4.832661290322581,10.122448979591836,2.0725806451612905,16,0.3689516129032258,2.0725806451612905,1.844758064516129,1.5040322580645162,0.9576612903225806,0.2963709677419355,0.2620967741935484,0.1794354838709677,0.2661290322580645,0.032258064516129,0.0,0.6773853452820242,0.6626251976805483,0.6584080126515551,0.6590421729807004,0.684060042887777,0.5689778413152251,3
519,46,1.7333333333333334,5.190751445086705,11.282608695652174,2.2061657032755297,16,0.4797687861271676,2.2061657032755297,1.928709055876686,1.6493256262042388,1.0404624277456649,0.4161849710982659,0.348747591522158,0.2138728323699422,0.3371868978805395,0.0500963391136801,0.001926782273603,0.7012505789717461,0.6956924502084298,0.6882816118573414,0.6252307692307693,0.6806153846153846,0.5975384615384616,3
408,41,2.2962962962962963,4.799019607843137,9.951219512195122,1.96078431372549,9,0.3970588235294117,1.96078431372549,1.7401960784313726,1.5196078431372548,0.9754901960784312,0.3431372549019608,0.3137254901960784,0.1715686274509804,0.2622549019607843,0.0318627450980392,0.0,0.6264591439688716,0.642023346303502,0.6160830090791181,0.6141592920353982,0.6424778761061947,0.5442477876106194,3
558,82,1.515625,4.842293906810036,6.804878048780488,2.0949820788530467,8,0.3996415770609319,2.0949820788530467,1.7150537634408602,1.6003584229390682,0.9372759856630823,0.3620071684587813,0.2508960573476702,0.1845878136200716,0.2849462365591398,0.053763440860215,0.0017921146953405,0.7017790262172284,0.6942883895131086,0.6811797752808989,0.6427664974619289,0.7176395939086294,0.608502538071066,3
635,73,1.92,4.6,8.698630136986301,2.0755905511811026,15,0.2976377952755905,2.0755905511811026,1.8015748031496064,1.4173228346456692,0.8440944881889764,0.2598425196850393,0.2204724409448819,0.137007874015748,0.2283464566929134,0.0283464566929133,0.0031496062992125,0.7187362878455463,0.7428696796840719,0.7165423431329531,0.6725717776420281,0.7422113622480146,0.6108735491753207,3
488,31,1.7142857142857142,4.836065573770492,15.741935483870968,2.1290983606557377,13,0.3463114754098361,2.1290983606557377,1.7991803278688523,1.5389344262295082,0.9426229508196722,0.3237704918032787,0.2581967213114754,0.1372950819672131,0.2336065573770492,0.0450819672131147,0.0,0.6960257787325457,0.7089151450053706,0.682062298603652,0.6444281524926686,0.7023460410557185,0.6217008797653959,3
452,52,1.25531914893617,5.0,8.692307692307692,2.1415929203539825,11,0.3849557522123893,2.1415929203539825,1.8628318584070795,1.6128318584070795,0.9557522123893806,0.3207964601769911,0.2699115044247787,0.1526548672566371,0.247787610619469,0.0486725663716814,0.0,0.6714681440443213,0.7091412742382271,0.6670360110803324,0.6644444444444444,0.6874074074074074,0.6274074074074074,3
699,83,1.3725490196078431,4.908440629470673,8.421686746987952,2.1216022889842634,30,0.4592274678111588,2.1216022889842634,1.8068669527897,1.4992846924177397,0.894134477825465,0.4191702432045779,0.2947067238912732,0.1587982832618025,0.3233190271816881,0.0457796852646638,0.0014306151645207,0.6270687752850312,0.6384700257447591,0.625965428466348,0.5388059701492537,0.6293532338308457,0.5268656716417911,3
411,49,1.25531914893617,4.751824817518248,8.387755102040817,2.0900243309002438,10,0.3527980535279805,2.0900243309002438,1.72992700729927,1.5377128953771289,0.8637469586374696,0.291970802919708,0.2384428223844282,0.1532846715328467,0.2530413625304136,0.0316301703163017,0.0,0.6631989596879063,0.6657997399219766,0.6313394018205462,0.6183745583038869,0.6996466431095406,0.5865724381625441,3
747,74,1.4545454545454546,4.610441767068273,10.094594594594597,1.9705488621151277,20,0.4163319946452476,1.9705488621151277,1.6987951807228916,1.3895582329317269,0.8340026773761714,0.3266398929049531,0.2704149933065595,0.1472556894243641,0.3012048192771084,0.0267737617135207,0.0,0.6950354609929078,0.703994027622247,0.6939156401642403,0.6551904016692749,0.7125717266562337,0.6150234741784038,3
637,83,1.7647058823529411,4.772370486656201,7.674698795180723,2.0282574568288854,20,0.3987441130298273,2.0282574568288854,1.8021978021978025,1.4646781789638932,0.9230769230769232,0.3422291993720565,0.2982731554160125,0.1758241758241758,0.271585557299843,0.0298273155416012,0.0031397174254317,0.6931150293870697,0.6780016792611251,0.6712846347607053,0.6131090487238979,0.6450116009280742,0.5945475638051044,3
262,23,1.875,4.919847328244275,11.391304347826088,2.1259541984732824,9,0.3549618320610687,2.1259541984732824,1.881679389312977,1.5534351145038168,0.9236641221374046,0.3206106870229007,0.2938931297709923,0.148854961832061,0.2366412213740458,0.0114503816793893,0.0,0.6950146627565983,0.6637341153470185,0.6559139784946236,0.6354029062087186,0.6631439894319683,0.5891677675033025,3
655,69,1.72,4.870229007633588,9.492753623188406,2.004580152671756,14,0.4854961832061069,2.004580152671756,1.7587786259541984,1.4366412213740458,0.9221374045801528,0.3740458015267175,0.299236641221374,0.2259541984732824,0.3389312977099236,0.0641221374045801,0.0015267175572519,0.6752679634775705,0.666534339023422,0.6530369194124652,0.6331712587790383,0.6596434359805511,0.5661804430037818,3
483,27,1.6,5.27536231884058,17.88888888888889,2.248447204968944,23,0.4679089026915113,2.248447204968944,1.917184265010352,1.7122153209109732,1.020703933747412,0.422360248447205,0.3188405797101449,0.2153209109730849,0.2836438923395445,0.0662525879917184,0.0062111801242236,0.671875,0.6689453125,0.6513671875,0.6034816247582205,0.6453900709219859,0.562862669245648,3
336,33,1.625,4.779761904761905,10.181818181818182,2.0892857142857144,9,0.3511904761904761,2.0892857142857144,1.7767857142857142,1.5535714285714286,0.9136904761904762,0.2767857142857143,0.2172619047619047,0.2053571428571428,0.2827380952380952,0.0059523809523809,0.0,0.6556343577620173,0.6453900709219859,0.6319936958234831,0.5665236051502146,0.630901287553648,0.5150214592274678,3
299,32,1.5,4.872909698996655,9.34375,2.096989966555184,7,0.3444816053511705,2.096989966555184,1.8929765886287624,1.5518394648829432,0.9498327759197324,0.31438127090301,0.2642140468227424,0.1906354515050167,0.2541806020066889,0.0468227424749163,0.0,0.7283737024221453,0.736159169550173,0.7162629757785467,0.669392523364486,0.6810747663551402,0.6039719626168224,3
1180,91,2.9347826086956523,4.4847457627118645,12.967032967032967,1.9745762711864407,19,0.288135593220339,1.9745762711864407,1.7042372881355932,1.378813559322034,0.7906779661016949,0.2296610169491525,0.2033898305084746,0.0915254237288135,0.1864406779661017,0.023728813559322,0.0016949152542372,0.6768931093255418,0.6729973216459703,0.6596055514974434,0.6260245901639344,0.6506147540983607,0.5864071038251366,3
347,39,1.7916666666666667,5.023054755043228,8.897435897435898,2.097982708933717,11,0.5648414985590778,2.097982708933717,1.8328530259365996,1.5360230547550433,0.9510086455331412,0.4783861671469741,0.3314121037463977,0.2219020172910663,0.4322766570605187,0.0778097982708933,0.0,0.6529284164859002,0.6522053506869125,0.6305133767172812,0.5764362220058422,0.6280428432327166,0.5530671859785784,3
942,98,2.3846153846153846,4.4543524416135885,9.612244897959185,1.884288747346072,17,0.3290870488322717,1.884288747346072,1.60828025477707,1.4363057324840764,0.8556263269639066,0.2462845010615711,0.1995753715498938,0.1178343949044586,0.2101910828025477,0.0371549893842887,0.0021231422505307,0.6976816074188562,0.712210200927357,0.6806800618238021,0.625764192139738,0.6934497816593886,0.608296943231441,3
705,100,1.4025974025974026,4.7205673758865245,7.05,2.032624113475177,12,0.3517730496453901,2.032624113475177,1.7588652482269505,1.4936170212765958,0.8567375886524823,0.3049645390070922,0.2780141843971631,0.1205673758865248,0.1914893617021276,0.0198581560283687,0.0,0.7133587786259542,0.749236641221374,0.7251908396946565,0.6539466806063774,0.7480397281756404,0.6163094615786723,3
584,68,1.7037037037037035,4.969178082191781,8.588235294117647,2.227739726027397,34,0.3835616438356164,2.227739726027397,1.86986301369863,1.4828767123287672,0.9092465753424658,0.3236301369863014,0.273972602739726,0.1660958904109589,0.3133561643835616,0.0256849315068493,0.0,0.6437282229965157,0.6489547038327527,0.6284843205574913,0.5970501474926254,0.6094395280235988,0.5333333333333333,3
698,84,1.4057971014492754,5.078796561604585,8.30952380952381,2.0787965616045847,15,0.5329512893982808,2.0787965616045847,1.8624641833810889,1.5329512893982808,1.017191977077364,0.4627507163323782,0.4126074498567335,0.2392550143266475,0.3696275071633237,0.0931232091690544,0.0014326647564469,0.7057163020465773,0.6997177134791813,0.700423429781228,0.6312323612417686,0.6923800564440263,0.6105362182502352,3
606,86,1.3506493506493509,5.021452145214521,7.046511627906977,2.113861386138614,26,0.4323432343234323,2.113861386138614,1.8613861386138613,1.6204620462046204,0.9735973597359736,0.3564356435643564,0.2772277227722772,0.1798679867986798,0.3234323432343234,0.0462046204620462,0.0,0.6848409748038001,0.7059066501445683,0.6691449814126395,0.6616749861342207,0.6838602329450915,0.6389351081530782,3
433,37,1.75,5.066974595842956,11.702702702702704,2.191685912240185,22,0.4526558891454965,2.191685912240185,1.8475750577367205,1.651270207852194,0.9214780600461894,0.3856812933025404,0.3163972286374134,0.1755196304849884,0.3279445727482679,0.0600461893764434,0.0023094688221709,0.6824942791762014,0.7036613272311213,0.6796338672768879,0.6443932411674347,0.6912442396313364,0.5952380952380952,3
402,32,1.5666666666666669,4.912935323383085,12.5625,2.032338308457712,12,0.4552238805970149,2.032338308457712,1.828358208955224,1.544776119402985,0.9751243781094528,0.3283582089552239,0.2985074626865671,0.2064676616915423,0.3432835820895522,0.0248756218905472,0.0,0.7714468629961587,0.7816901408450704,0.765685019206146,0.7528187337380746,0.7762359063313097,0.7137901127493496,3
563,104,1.1686746987951808,5.149200710479573,5.413461538461538,2.25044404973357,27,0.3428063943161634,2.25044404973357,1.9182948490230909,1.7619893428063944,1.030195381882771,0.3143872113676731,0.2717584369449378,0.1616341030195381,0.2486678507992895,0.0319715808170515,0.0,0.6916809605488851,0.7341337907375644,0.6981132075471698,0.6787535410764872,0.7337110481586402,0.6492917847025496,3
399,45,1.625,4.807017543859649,8.866666666666667,1.99749373433584,12,0.5087719298245614,1.99749373433584,1.7243107769423558,1.443609022556391,0.8671679197994987,0.3834586466165413,0.3032581453634085,0.1904761904761904,0.3533834586466165,0.0701754385964912,0.0,0.7061548643282595,0.7313037723362011,0.6935804103242885,0.6781193490054249,0.7251356238698011,0.6030741410488246,3
467,42,1.1794871794871795,4.426124197002141,11.11904761904762,1.967880085653105,14,0.3597430406852248,1.967880085653105,1.721627408993576,1.2291220556745182,0.7537473233404711,0.2612419700214132,0.2184154175588865,0.0899357601713062,0.2355460385438972,0.0214132762312633,0.0021413276231263,0.7082028804007514,0.6988102692548529,0.6975579211020664,0.6486246672582077,0.735581188997338,0.6308784383318545,3
643,65,1.4642857142857142,4.539657853810264,9.892307692307693,1.897356143079316,22,0.4914463452566096,1.897356143079316,1.6423017107309488,1.245723172628305,0.8164852255054432,0.3483670295489891,0.2830482115085536,0.1835147744945567,0.3934681181959564,0.0528771384136858,0.0,0.6421330982811811,0.6584398413397973,0.6535918907007492,0.6048088779284834,0.6763255240443896,0.562268803945746,3
487,55,1.3829787234042554,4.95482546201232,8.854545454545455,2.2279260780287475,27,0.3531827515400411,2.2279260780287475,1.893223819301848,1.513347022587269,0.9383983572895276,0.3059548254620123,0.2587268993839836,0.1314168377823408,0.2792607802874743,0.0266940451745379,0.0,0.6957658128593832,0.7025614218504966,0.665446941975954,0.673036093418259,0.6709129511677282,0.6199575371549894,3
731,99,2.625,4.503419972640219,7.383838383838384,1.93296853625171,10,0.3365253077975376,1.93296853625171,1.7510259917920656,1.3461012311901506,0.8727770177838577,0.2694938440492476,0.2298221614227086,0.161422708618331,0.2517099863201094,0.0355677154582763,0.0,0.716039603960396,0.7231683168316831,0.6883168316831683,0.6674132138857782,0.6875699888017918,0.6427771556550952,3
982,79,1.7580645161290325,5.04887983706721,12.430379746835444,2.139511201629328,34,0.4684317718940937,2.139511201629328,1.8258655804480648,1.6476578411405296,1.0173116089613037,0.3920570264765784,0.335030549898167,0.2321792260692464,0.3625254582484725,0.0397148676171079,0.0030549898167006,0.6535353535353535,0.697979797979798,0.6744949494949495,0.6483849259757739,0.648721399730821,0.607335127860027,3
202,23,3.0,4.698019801980198,8.782608695652174,2.004950495049505,5,0.3910891089108911,2.004950495049505,1.7178217821782178,1.4504950495049505,0.8217821782178217,0.297029702970297,0.2475247524752475,0.1633663366336633,0.297029702970297,0.0,0.0,0.6721311475409836,0.6898907103825137,0.6666666666666666,0.6316793893129771,0.6049618320610687,0.549618320610687,3
503,68,1.818181818181818,4.779324055666004,7.397058823529412,2.073558648111332,20,0.3399602385685885,2.073558648111332,1.852882703777336,1.4930417495029822,0.94831013916501,0.2763419483101391,0.2286282306163022,0.1312127236580517,0.2504970178926441,0.0357852882703777,0.0,0.743940990516333,0.743940990516333,0.7239199157007377,0.6927494615936827,0.697056712132089,0.6453697056712132,3
108,20,1.1333333333333333,4.62037037037037,5.4,1.9907407407407407,1,0.4166666666666667,1.9907407407407407,1.7314814814814814,1.4074074074074074,0.7870370370370371,0.3611111111111111,0.287037037037037,0.0648148148148148,0.1481481481481481,0.0092592592592592,0.0,0.7800511508951407,0.7442455242966752,0.7749360613810742,0.7102473498233216,0.7279151943462897,0.6925795053003534,3
241,40,1.3548387096774193,4.572614107883817,6.025,1.946058091286307,1,0.3568464730290456,1.946058091286307,1.7261410788381744,1.4149377593360997,0.8215767634854771,0.3195020746887966,0.3029045643153527,0.0663900414937759,0.1950207468879668,0.0082987551867219,0.0,0.7007042253521126,0.6948356807511737,0.647887323943662,0.6345514950166113,0.6212624584717608,0.5598006644518272,3
350,46,1.862068965517241,5.0685714285714285,7.608695652173913,2.145714285714286,11,0.4942857142857143,2.145714285714286,1.8085714285714285,1.6,0.9085714285714286,0.4371428571428571,0.3085714285714285,0.22,0.3,0.0285714285714285,0.0028571428571428,0.7231201686577653,0.7160927617709065,0.7139845397048489,0.6492537313432836,0.707089552238806,0.5914179104477612,3
438,60,1.441860465116279,4.796803652968037,7.3,1.9863013698630136,9,0.4611872146118721,1.9863013698630136,1.773972602739726,1.4315068493150684,0.8767123287671232,0.3972602739726027,0.3607305936073059,0.1187214611872146,0.2990867579908676,0.0296803652968036,0.0,0.6578313253012048,0.6686746987951807,0.6518072289156627,0.5906480721903199,0.6694011484823625,0.5808039376538146,3
653,77,1.9,4.442572741194487,8.480519480519481,1.9326186830015315,9,0.3644716692189892,1.9326186830015315,1.5987748851454824,1.379785604900459,0.8560490045941807,0.3200612557427258,0.2542113323124043,0.1562021439509954,0.2802450229709035,0.0535987748851454,0.003062787136294,0.6699375557537912,0.6672613737734165,0.6534344335414808,0.674827369742624,0.7394852479598242,0.6421845574387948,3
539,163,1.360655737704918,4.679035250463822,3.3067484662576687,2.061224489795918,14,0.3153988868274582,2.061224489795918,1.738404452690167,1.5269016697588127,0.9387755102040816,0.274582560296846,0.2319109461966604,0.1595547309833024,0.222634508348794,0.0371057513914656,0.0037105751391465,0.7143579373104145,0.7194135490394338,0.6880687563195147,0.6534170153417015,0.693863319386332,0.5815899581589958,3
889,105,1.5,4.771653543307087,8.466666666666667,2.035995500562429,21,0.3509561304836895,2.035995500562429,1.8211473565804277,1.514060742407199,0.9257592800899888,0.3037120359955005,0.2609673790776153,0.1676040494938132,0.2463442069741282,0.0371203599550056,0.0,0.7001800720288115,0.7067827130852341,0.6812725090036015,0.6723000824402309,0.6846661170651278,0.6310799670239077,3
526,89,1.4705882352941178,4.629277566539924,5.910112359550562,1.9980988593155893,9,0.3536121673003802,1.9980988593155893,1.714828897338403,1.4239543726235742,0.8250950570342205,0.3041825095057034,0.2528517110266159,0.11787072243346,0.2224334600760456,0.0304182509505703,0.0,0.7037815126050421,0.6801470588235294,0.6738445378151261,0.6656955571740714,0.6839038601602331,0.6212672978878369,3
522,48,1.4222222222222225,4.651340996168583,10.875,2.0268199233716477,16,0.3218390804597701,2.0268199233716477,1.7950191570881229,1.4444444444444444,0.8850574712643678,0.2816091954022988,0.2375478927203065,0.1417624521072797,0.2088122605363984,0.0191570881226053,0.0,0.7179757511860833,0.7000527148128625,0.6989984185556142,0.6456808199121523,0.6566617862371888,0.6112737920937042,3
431,34,1.8,4.974477958236659,12.676470588235292,2.0951276102088165,13,0.5011600928074246,2.0951276102088165,1.8422273781902552,1.501160092807425,0.9303944315545244,0.3897911832946635,0.3109048723897912,0.2134570765661252,0.4037122969837587,0.0510440835266821,0.0,0.6844262295081968,0.7096018735362998,0.6756440281030445,0.620203602192639,0.6593578700078309,0.59592795614722,3
455,55,1.2340425531914894,4.828571428571428,8.272727272727273,2.076923076923077,10,0.334065934065934,2.076923076923077,1.8571428571428568,1.553846153846154,0.9582417582417584,0.2989010989010989,0.2769230769230769,0.1274725274725274,0.189010989010989,0.0065934065934065,0.0,0.7679907887161773,0.7484168105929764,0.7466896948762234,0.7196554424432263,0.7642913077525451,0.6797180892717306,3
288,59,1.5,4.420138888888889,4.88135593220339,1.8333333333333333,0,0.4756944444444444,1.8333333333333333,1.5138888888888888,1.2534722222222223,0.8194444444444444,0.4305555555555556,0.3229166666666667,0.2465277777777778,0.3333333333333333,0.0625,0.0,0.7063008130081301,0.693089430894309,0.6595528455284553,0.6776978417266187,0.7352517985611511,0.581294964028777,3
