% Merged features for tagalog
@RELATION readability_tagalog

@ATTRIBUTE word_count NUMERIC
@ATTRIBUTE sentence_count NUMERIC
@ATTRIBUTE phrase_count_per_sentence NUMERIC
@ATTRIBUTE average_word_len NUMERIC
@ATTRIBUTE average_sentence_len NUMERIC
@ATTRIBUTE average_syllable_count NUMERIC
@ATTRIBUTE polysyll_count NUMERIC
@ATTRIBUTE consonant_cluster_density NUMERIC
@ATTRIBUTE v_density NUMERIC
@ATTRIBUTE cv_density NUMERIC
@ATTRIBUTE vc_density NUMERIC
@ATTRIBUTE cvc_density NUMERIC
@ATTRIBUTE vcc_density NUMERIC
@ATTRIBUTE cvcc_density NUMERIC
@ATTRIBUTE ccvc_density NUMERIC
@ATTRIBUTE ccv_density NUMERIC
@ATTRIBUTE ccvcc_density NUMERIC
@ATTRIBUTE ccvccc_density NUMERIC
@ATTRIBUTE tagalog_bigram_sim NUMERIC
@ATTRIBUTE bikol_bigram_sim NUMERIC
@ATTRIBUTE cebuano_bigram_sim NUMERIC
@ATTRIBUTE tagalog_trigram_sim NUMERIC
@ATTRIBUTE bikol_trigram_sim NUMERIC
@ATTRIBUTE cebuano_trigam_sim NUMERIC
@ATTRIBUTE class {1, 2, 3}

@DATA
30,6,0.0,3.6,5.0,1.7,0,0.2,1.7,1.5,0.9,0.6,0.2,0.0,0.0,0.0,0.0,0.0,0.9230769230769232,0.7948717948717948,0.8205128205128205,0.8125,0.4791666666666667,0.75,1
151,22,1.6,4.920529801324503,6.863636363636363,2.1390728476821192,3,0.4437086092715231,2.1390728476821192,1.8079470198675496,1.456953642384106,0.8675496688741722,0.3443708609271523,0.2781456953642384,0.119205298013245,0.2185430463576159,0.0331125827814569,0.0,0.7381756756756757,0.7297297297297297,0.7280405405405406,0.7891156462585034,0.6326530612244898,0.6689342403628118,1
189,23,1.391304347826087,5.455026455026455,8.217391304347826,2.3386243386243386,14,0.5132275132275133,2.3386243386243386,1.9312169312169312,1.8412698412698407,0.9523809523809524,0.3915343915343915,0.2857142857142857,0.1111111111111111,0.2063492063492063,0.0105820105820105,0.0,0.7593261131167268,0.7244283995186522,0.7376654632972323,0.8107255520504731,0.6514195583596214,0.6656151419558359,1
42,6,1.3333333333333333,5.071428571428571,7.0,2.1666666666666665,2,0.4523809523809524,2.1666666666666665,1.880952380952381,1.6428571428571428,0.9285714285714286,0.4047619047619047,0.3571428571428571,0.1666666666666666,0.2142857142857142,0.0476190476190476,0.0238095238095238,0.7941176470588235,0.7411764705882353,0.788235294117647,0.905511811023622,0.7480314960629921,0.7874015748031497,1
505,54,1.7391304347826086,4.376237623762377,9.351851851851851,1.9108910891089108,13,0.3821782178217822,1.9108910891089108,1.5584158415841585,1.376237623762376,0.7405940594059406,0.291089108910891,0.1603960396039604,0.1188118811881188,0.192079207920792,0.0237623762376237,0.0,0.7603550295857988,0.7479289940828402,0.7455621301775148,0.82066609735269,0.6319385140905209,0.6695132365499573,1
83,9,0.0,5.192771084337349,9.22222222222222,2.180722891566265,3,0.7108433734939759,2.180722891566265,1.6626506024096386,1.7710843373493976,0.8554216867469879,0.6506024096385542,0.3975903614457831,0.1686746987951807,0.4096385542168674,0.036144578313253,0.0,0.7959770114942529,0.7787356321839081,0.7614942528735632,0.7962264150943397,0.6490566037735849,0.7320754716981132,1
99,16,1.0625,4.05050505050505,6.1875,1.9191919191919191,2,0.2424242424242424,1.9191919191919191,1.505050505050505,1.2525252525252526,0.6363636363636364,0.1919191919191919,0.0707070707070707,0.0202020202020202,0.0808080808080808,0.0,0.0,0.8112582781456954,0.7649006622516556,0.7913907284768212,0.8768472906403941,0.6748768472906403,0.6896551724137931,1
27,7,1.2857142857142858,3.814814814814815,3.857142857142857,1.7777777777777777,0,0.1111111111111111,1.7777777777777777,1.5185185185185186,1.1111111111111112,0.8148148148148148,0.1111111111111111,0.0,0.0,0.0,0.0,0.0,0.7763157894736842,0.6710526315789473,0.7368421052631579,0.7142857142857143,0.6326530612244898,0.7755102040816326,1
77,10,1.4444444444444444,4.558441558441558,7.7,1.9610389610389607,4,0.4805194805194805,1.9610389610389607,1.4675324675324677,1.4935064935064934,0.7662337662337663,0.3896103896103896,0.2857142857142857,0.0779220779220779,0.1298701298701298,0.0129870129870129,0.0,0.8686131386861314,0.8321167883211679,0.8540145985401459,0.9137055837563453,0.7715736040609137,0.7817258883248731,1
94,11,1.0909090909090908,5.308510638297872,8.545454545454545,2.202127659574468,5,0.5319148936170213,2.202127659574468,1.904255319148936,1.7872340425531914,1.0212765957446808,0.4468085106382978,0.3191489361702128,0.1808510638297872,0.2553191489361702,0.0531914893617021,0.0,0.7935323383084577,0.7487562189054726,0.753731343283582,0.8721311475409836,0.6852459016393443,0.7114754098360656,1
402,70,1.7045454545454546,4.41542288557214,5.742857142857143,1.9154228855721396,3,0.3059701492537313,1.9154228855721396,1.654228855721393,1.3606965174129353,0.7661691542288557,0.2412935323383084,0.1791044776119403,0.0945273631840796,0.1218905472636815,0.0248756218905472,0.0,0.6879588839941263,0.6659324522760646,0.6328928046989721,0.6554267650158061,0.5648050579557429,0.5974710221285564,1
188,14,1.7692307692307692,4.72872340425532,13.428571428571429,1.9893617021276595,6,0.4734042553191489,1.9893617021276595,1.648936170212766,1.50531914893617,0.8031914893617021,0.3670212765957447,0.25,0.0744680851063829,0.1968085106382978,0.0212765957446808,0.0,0.8051575931232091,0.7707736389684814,0.7779369627507163,0.8126232741617357,0.7041420118343196,0.7416173570019724,1
171,36,1.3888888888888888,5.0,4.75,1.824561403508772,3,0.5614035087719298,1.824561403508772,1.608187134502924,1.4269005847953216,0.8654970760233918,0.3859649122807017,0.2573099415204678,0.1228070175438596,0.1812865497076023,0.0584795321637426,0.0058479532163742,0.6544117647058824,0.625,0.6279411764705882,0.6600790513833992,0.5632411067193676,0.5375494071146245,1
32,7,1.3333333333333333,3.375,4.571428571428571,1.5,0,0.125,1.5,1.3125,0.9375,0.6875,0.0625,0.0,0.0,0.0,0.0,0.0,0.6842105263157895,0.6710526315789473,0.6973684210526315,0.6818181818181818,0.5909090909090909,0.5909090909090909,1
154,18,1.7058823529411764,4.876623376623376,8.555555555555555,2.0454545454545454,3,0.5064935064935064,2.0454545454545454,1.7467532467532467,1.5649350649350648,0.8896103896103896,0.3961038961038961,0.2532467532467532,0.1623376623376623,0.2207792207792207,0.0649350649350649,0.0,0.8324958123953099,0.7805695142378559,0.7738693467336684,0.891647855530474,0.7065462753950339,0.7291196388261851,1
205,28,1.2222222222222223,4.726829268292683,7.321428571428571,1.946341463414634,3,0.3853658536585366,1.946341463414634,1.7365853658536583,1.5658536585365854,0.9609756097560976,0.3317073170731707,0.2390243902439024,0.1170731707317073,0.1463414634146341,0.0097560975609756,0.0,0.81282722513089,0.7774869109947644,0.7853403141361257,0.851520572450805,0.7084078711985689,0.7459749552772809,1
193,28,1.4444444444444444,4.772020725388601,6.892857142857143,1.922279792746114,4,0.4818652849740932,1.922279792746114,1.7461139896373057,1.5025906735751295,0.927461139896373,0.3937823834196891,0.3523316062176165,0.1502590673575129,0.1865284974093264,0.0,0.0,0.8021978021978022,0.7527472527472527,0.7953296703296703,0.8373831775700935,0.7121495327102804,0.7420560747663552,1
147,16,1.2666666666666666,5.129251700680272,9.1875,2.1156462585034013,5,0.4965986394557823,2.1156462585034013,1.8435374149659864,1.727891156462585,0.979591836734694,0.4353741496598639,0.2789115646258503,0.1632653061224489,0.2312925170068027,0.0680272108843537,0.0068027210884353,0.7777777777777778,0.7197346600331676,0.7396351575456053,0.8606194690265486,0.6924778761061947,0.7256637168141593,1
443,102,1.2580645161290325,4.557562076749436,4.3431372549019605,1.9142212189616248,8,0.3950338600451467,1.9142212189616248,1.6343115124153498,1.4582392776523705,0.7787810383747178,0.2979683972911964,0.1986455981941309,0.0586907449209932,0.1038374717832957,0.0180586907449209,0.0,0.7484076433121019,0.7127388535031847,0.7121019108280254,0.7734165923282783,0.6422836752899197,0.6806422836752899,1
159,16,2.2142857142857144,4.628930817610063,9.9375,2.0,3,0.320754716981132,2.0,1.7232704402515724,1.4842767295597483,0.8238993710691824,0.2893081761006289,0.2264150943396226,0.10062893081761,0.1572327044025157,0.0,0.0,0.8017391304347826,0.768695652173913,0.7721739130434783,0.8240963855421687,0.6216867469879518,0.6650602409638554,1
76,2,0.0,4.315789473684211,38.0,1.9342105263157892,1,0.3815789473684211,1.9342105263157892,1.513157894736842,1.2105263157894737,0.6578947368421053,0.3289473684210526,0.1842105263157894,0.0921052631578947,0.131578947368421,0.0,0.0,0.7182539682539683,0.6706349206349206,0.7261904761904762,0.8352272727272727,0.5909090909090909,0.7272727272727273,1
54,5,0.0,4.944444444444445,10.8,2.1481481481481484,0,0.4074074074074074,2.1481481481481484,1.851851851851852,1.5925925925925926,0.8703703703703703,0.3148148148148148,0.2777777777777778,0.1111111111111111,0.2037037037037037,0.0,0.0,0.7688679245283019,0.6698113207547169,0.6839622641509434,0.8407643312101911,0.5923566878980892,0.6114649681528662,1
211,21,1.619047619047619,4.85308056872038,10.047619047619047,1.976303317535545,3,0.5213270142180095,1.976303317535545,1.800947867298578,1.4597156398104263,0.909952606635071,0.3838862559241706,0.2748815165876777,0.1658767772511848,0.2511848341232227,0.0426540284360189,0.0,0.754017305315204,0.715698393077874,0.7206427688504327,0.803030303030303,0.632996632996633,0.6734006734006734,1
182,21,1.2352941176470589,4.791208791208791,8.666666666666666,2.005494505494505,3,0.456043956043956,2.005494505494505,1.6813186813186811,1.5714285714285714,0.8956043956043956,0.3846153846153846,0.2857142857142857,0.0934065934065934,0.1208791208791208,0.0219780219780219,0.0,0.8023255813953488,0.7558139534883721,0.7819767441860465,0.8359683794466403,0.6758893280632411,0.7470355731225297,1
172,27,1.5384615384615383,5.476744186046512,6.37037037037037,2.2732558139534884,8,0.5058139534883721,2.2732558139534884,2.046511627906977,1.8662790697674416,1.1046511627906976,0.4186046511627907,0.3081395348837209,0.1860465116279069,0.2906976744186046,0.0348837209302325,0.0,0.8230668414154653,0.8034076015727392,0.7916120576671035,0.8304794520547946,0.7054794520547946,0.708904109589041,1
97,9,1.3333333333333333,4.639175257731959,10.77777777777778,1.9381443298969072,0,0.4845360824742268,1.9381443298969072,1.690721649484536,1.4123711340206186,0.8969072164948454,0.3917525773195876,0.2886597938144329,0.1649484536082474,0.1958762886597938,0.0618556701030927,0.0,0.74,0.7114285714285714,0.7057142857142857,0.768,0.592,0.616,1
191,18,1.3333333333333333,4.884816753926701,10.61111111111111,2.026178010471204,8,0.5287958115183246,2.026178010471204,1.7225130890052356,1.5602094240837696,0.8691099476439791,0.4136125654450261,0.3246073298429319,0.1256544502617801,0.2303664921465968,0.0052356020942408,0.0,0.7788331071913162,0.728629579375848,0.723202170963365,0.8047882136279927,0.6445672191528545,0.6832412523020258,1
180,15,1.7692307692307692,4.4944444444444445,12.0,1.8277777777777775,2,0.4333333333333333,1.8277777777777775,1.5611111111111111,1.4555555555555555,0.8166666666666667,0.3111111111111111,0.2166666666666666,0.1166666666666666,0.1611111111111111,0.0222222222222222,0.0,0.7543859649122807,0.682615629984051,0.7256778309409888,0.7869955156950673,0.600896860986547,0.6434977578475336,1
127,19,1.4615384615384617,4.6141732283464565,6.684210526315789,1.9606299212598424,3,0.5039370078740157,1.9606299212598424,1.6456692913385826,1.3779527559055118,0.7795275590551181,0.4094488188976378,0.2598425196850393,0.1889763779527559,0.2755905511811024,0.0551181102362204,0.0,0.7292576419213974,0.6899563318777293,0.6921397379912664,0.7545454545454545,0.6272727272727273,0.6666666666666666,1
364,53,1.4047619047619049,4.730769230769231,6.867924528301887,1.978021978021978,4,0.4368131868131868,1.978021978021978,1.7774725274725274,1.4532967032967032,0.8846153846153846,0.3461538461538461,0.2857142857142857,0.1868131868131868,0.2417582417582417,0.0164835164835164,0.0,0.6999260901699926,0.6489283074648928,0.6400591278640059,0.6991869918699187,0.5548780487804879,0.5873983739837398,1
99,15,1.4666666666666666,4.232323232323233,6.6,1.8282828282828285,2,0.2828282828282828,1.8282828282828285,1.616161616161616,1.3131313131313131,0.7676767676767676,0.202020202020202,0.101010101010101,0.0505050505050505,0.101010101010101,0.0,0.0,0.765625,0.690625,0.665625,0.7647058823529411,0.5972850678733032,0.7013574660633484,1
1120,139,1.794392523364486,4.665178571428571,8.057553956834532,2.0017857142857145,32,0.3607142857142857,2.0017857142857145,1.7598214285714286,1.4758928571428571,0.8375,0.2901785714285714,0.2214285714285714,0.08125,0.1544642857142857,0.0089285714285714,0.0017857142857142,0.7898104848634014,0.7391090327344327,0.7592911641644106,0.8382099827882961,0.685025817555938,0.7222030981067126,1
624,75,1.5,4.798076923076923,8.32,2.08974358974359,21,0.3605769230769231,2.08974358974359,1.8269230769230769,1.551282051282051,0.8974358974358975,0.3076923076923077,0.25,0.1185897435897435,0.1714743589743589,0.0288461538461538,0.0,0.7967755621552821,0.7445905812473483,0.7411964361476453,0.827906976744186,0.6680232558139535,0.6970930232558139,1
234,17,1.7647058823529411,4.948717948717949,13.764705882352942,2.0042735042735043,5,0.5470085470085471,2.0042735042735043,1.7307692307692308,1.5384615384615383,0.9230769230769232,0.4615384615384615,0.3376068376068376,0.2094017094017094,0.2863247863247863,0.047008547008547,0.0,0.7648970747562297,0.7432286023835319,0.7388949079089924,0.813953488372093,0.6642441860465116,0.6540697674418605,1
160,10,1.1,4.99375,16.0,2.06875,11,0.55,2.06875,1.76875,1.60625,0.8875,0.45625,0.28125,0.15,0.26875,0.0625,0.0,0.7610759493670886,0.740506329113924,0.7294303797468354,0.815845824411135,0.6466809421841542,0.6659528907922913,1
1133,118,1.5247524752475248,4.745807590467785,9.601694915254235,1.9549867608120035,31,0.4819064430714916,1.9549867608120035,1.739629302736099,1.4616063548102385,0.8852603706972639,0.3715798764342454,0.3053839364518976,0.1544571932921447,0.2021182700794351,0.0220653133274492,0.0008826125330979,0.7602836879432624,0.7156028368794326,0.7349881796690307,0.7852283770651117,0.6407515387107224,0.6624554583738257,1
170,20,2.9,4.376470588235295,8.5,1.923529411764706,2,0.3470588235294117,1.923529411764706,1.5294117647058822,1.3411764705882352,0.711764705882353,0.288235294117647,0.2352941176470588,0.0470588235294117,0.1294117647058823,0.0176470588235294,0.0,0.7560975609756098,0.7491289198606271,0.7160278745644599,0.8663366336633663,0.6856435643564357,0.698019801980198,1
218,29,0.0,5.26605504587156,7.517241379310345,2.1605504587155964,13,0.555045871559633,2.1605504587155964,1.908256880733945,1.724770642201835,0.9862385321100916,0.4266055045871559,0.2844036697247706,0.146788990825688,0.2614678899082568,0.0321100917431192,0.0,0.7801724137931034,0.7629310344827587,0.7672413793103449,0.7937853107344632,0.6596045197740112,0.690677966101695,1
444,57,1.7142857142857142,4.63963963963964,7.7894736842105265,1.9752252252252247,10,0.3738738738738739,1.9752252252252247,1.7432432432432432,1.470720720720721,0.8581081081081081,0.2882882882882883,0.2207207207207207,0.1058558558558558,0.1846846846846846,0.0225225225225225,0.0,0.815509693558474,0.7611006879299562,0.7617260787992496,0.8505244755244755,0.7036713286713286,0.7368881118881119,1
716,73,1.3676470588235294,4.681564245810056,9.808219178082192,1.9357541899441344,11,0.4776536312849162,1.9357541899441344,1.6620111731843576,1.4441340782122905,0.8198324022346368,0.3687150837988827,0.2737430167597765,0.0921787709497206,0.1829608938547486,0.020949720670391,0.0,0.807265774378585,0.7544933078393882,0.7694072657743786,0.8385554965480616,0.6707381837493361,0.709506107275624,1
188,16,1.3076923076923077,4.702127659574468,11.75,1.9946808510638296,2,0.4734042553191489,1.9946808510638296,1.7234042553191489,1.4414893617021276,0.8085106382978723,0.3989361702127659,0.2606382978723404,0.1170212765957446,0.2872340425531915,0.0425531914893617,0.0,0.7622478386167147,0.7363112391930836,0.7478386167146974,0.8475247524752475,0.6594059405940594,0.6772277227722773,1
173,24,1.5,4.959537572254336,7.208333333333333,2.098265895953757,7,0.4161849710982659,2.098265895953757,1.884393063583815,1.6011560693641618,0.9364161849710982,0.3236994219653179,0.2312138728323699,0.1156069364161849,0.1618497109826589,0.0115606936416184,0.0,0.7763157894736842,0.7309941520467836,0.7324561403508771,0.8392156862745098,0.6529411764705882,0.6666666666666666,1
275,25,1.565217391304348,4.825454545454545,11.0,2.069090909090909,6,0.3709090909090909,2.069090909090909,1.8363636363636364,1.5563636363636364,0.9090909090909092,0.3127272727272727,0.2436363636363636,0.1018181818181818,0.16,0.0145454545454545,0.0,0.7761904761904762,0.7485714285714286,0.7704761904761904,0.7994825355756792,0.6778783958602846,0.6416558861578266,1
71,12,1.1666666666666667,3.9859154929577465,5.916666666666667,1.816901408450704,1,0.2253521126760563,1.816901408450704,1.5070422535211268,1.1830985915492958,0.5915492957746479,0.2253521126760563,0.1408450704225352,0.0704225352112676,0.0845070422535211,0.0,0.0,0.7641509433962265,0.7358490566037735,0.7075471698113207,0.7588652482269503,0.6595744680851063,0.7092198581560284,1
176,25,1.44,5.113636363636363,7.04,2.1818181818181817,10,0.4715909090909091,2.1818181818181817,1.8977272727272727,1.630681818181818,0.9488636363636364,0.3636363636363636,0.2670454545454545,0.1363636363636363,0.2272727272727272,0.0170454545454545,0.0,0.7707182320441989,0.744475138121547,0.7375690607734806,0.833941605839416,0.6934306569343066,0.7244525547445255,1
41,10,0.0,3.3902439024390243,4.1,1.6585365853658536,0,0.073170731707317,1.6585365853658536,1.3170731707317074,0.902439024390244,0.4878048780487805,0.073170731707317,0.0,0.0,0.0,0.0,0.0,0.7653061224489796,0.7653061224489796,0.7244897959183674,0.631578947368421,0.543859649122807,0.543859649122807,1
325,39,1.173913043478261,4.606153846153847,8.333333333333334,1.9323076923076925,13,0.4553846153846154,1.9323076923076925,1.6215384615384616,1.4646153846153849,0.7938461538461539,0.3507692307692308,0.2492307692307692,0.1046153846153846,0.1969230769230769,0.0307692307692307,0.0,0.7698887938408896,0.7254063301967494,0.7408041060735672,0.7703180212014135,0.6383981154299175,0.6784452296819788,1
52,11,1.2,4.384615384615385,4.727272727272728,1.9615384615384612,1,0.2884615384615384,1.9615384615384612,1.4615384615384617,1.5769230769230769,0.7884615384615384,0.173076923076923,0.0961538461538461,0.0192307692307692,0.1346153846153846,0.0,0.0,0.76,0.7371428571428571,0.72,0.902439024390244,0.6829268292682927,0.7073170731707317,1
61,12,1.5,3.950819672131148,5.083333333333333,1.8852459016393444,0,0.2295081967213114,1.8852459016393444,1.540983606557377,1.1311475409836065,0.5409836065573771,0.1967213114754098,0.0327868852459016,0.0163934426229508,0.0983606557377049,0.0,0.0,0.7833333333333333,0.75,0.75,0.7394957983193278,0.5546218487394958,0.6386554621848739,1
195,27,1.2222222222222223,4.635897435897436,7.222222222222222,1.912820512820513,3,0.558974358974359,1.912820512820513,1.528205128205128,1.4666666666666666,0.7846153846153846,0.4102564102564102,0.2666666666666666,0.0974358974358974,0.241025641025641,0.0102564102564102,0.0,0.7677053824362606,0.7379603399433428,0.7393767705382436,0.803921568627451,0.692156862745098,0.7176470588235294,1
455,42,1.3157894736842106,4.931868131868132,10.833333333333334,2.0791208791208797,14,0.4879120879120879,2.0791208791208797,1.7824175824175823,1.5516483516483517,0.9032967032967032,0.3912087912087912,0.2725274725274725,0.123076923076923,0.2307692307692307,0.0549450549450549,0.0,0.755331088664422,0.72334455667789,0.754769921436588,0.8149546827794562,0.6631419939577039,0.6601208459214502,1
270,32,1.52,4.696296296296296,8.4375,2.011111111111111,2,0.362962962962963,2.011111111111111,1.7481481481481482,1.4666666666666666,0.8037037037037037,0.3,0.2259259259259259,0.0814814814814814,0.1259259259259259,0.0074074074074074,0.0,0.7828282828282829,0.7626262626262627,0.7505050505050505,0.8300561797752809,0.7120786516853933,0.6966292134831461,1
342,35,1.2258064516129032,4.850877192982456,9.771428571428572,1.9853801169590644,11,0.4853801169590643,1.9853801169590644,1.7426900584795322,1.546783625730994,0.8742690058479532,0.4181286549707602,0.3011695906432748,0.1081871345029239,0.2134502923976608,0.0350877192982456,0.0058479532163742,0.7865853658536586,0.7278963414634146,0.7378048780487805,0.7936016511867905,0.6150670794633643,0.6893704850361198,1
339,29,2.090909090909091,5.04424778761062,11.689655172413794,2.106194690265487,26,0.5014749262536873,2.106194690265487,1.8525073746312684,1.6283185840707963,0.9262536873156342,0.3421828908554572,0.2389380530973451,0.1179941002949852,0.2035398230088495,0.0412979351032448,0.0058997050147492,0.7472527472527473,0.7216117216117216,0.717948717948718,0.7595307917888563,0.6109481915933529,0.6412512218963832,1
161,21,1.0476190476190477,5.3602484472049685,7.666666666666667,2.186335403726708,14,0.6086956521739131,2.186335403726708,1.8571428571428568,1.8074534161490683,1.0248447204968945,0.4968944099378882,0.3602484472049689,0.1801242236024844,0.3105590062111801,0.0372670807453416,0.0,0.753934191702432,0.7181688125894135,0.7296137339055794,0.7406716417910447,0.6455223880597015,0.6753731343283582,1
200,27,1.588235294117647,4.83,7.407407407407407,2.03,4,0.45,2.03,1.785,1.515,0.875,0.34,0.25,0.13,0.205,0.045,0.005,0.7811671087533156,0.7493368700265252,0.7612732095490716,0.8339483394833949,0.7121771217712177,0.7121771217712177,1
217,31,1.1724137931034482,5.0368663594470044,7.0,2.110599078341014,7,0.4792626728110599,2.110599078341014,1.870967741935484,1.6451612903225807,0.9953917050691244,0.4055299539170507,0.3456221198156682,0.1244239631336405,0.2119815668202765,0.0092165898617511,0.0,0.8147295742232451,0.7859608745684695,0.8020713463751439,0.8682170542635659,0.7116279069767442,0.7302325581395349,1
282,29,2.0869565217391304,4.723404255319149,9.724137931034482,1.9397163120567376,10,0.4645390070921986,1.9397163120567376,1.702127659574468,1.482269503546099,0.9184397163120568,0.3794326241134751,0.2624113475177305,0.1950354609929078,0.2872340425531915,0.0567375886524822,0.0,0.7265774378585086,0.6921606118546845,0.7036328871892925,0.7171052631578947,0.6171052631578947,0.6013157894736842,1
205,27,1.2222222222222223,5.151219512195122,7.592592592592593,2.1365853658536587,9,0.551219512195122,2.1365853658536587,1.8390243902439023,1.6878048780487804,0.951219512195122,0.4146341463414634,0.2975609756097561,0.1414634146341463,0.2829268292682926,0.0390243902439024,0.0,0.7461629279811098,0.7225501770956316,0.7201889020070839,0.7625,0.6296875,0.6734375,1
99,20,1.25,4.181818181818182,4.95,1.9494949494949492,0,0.1212121212121212,1.9494949494949492,1.6666666666666667,1.3535353535353536,0.7272727272727273,0.0909090909090909,0.0404040404040404,0.0303030303030303,0.0606060606060606,0.0,0.0,0.7841269841269841,0.7015873015873015,0.7365079365079366,0.7916666666666666,0.5925925925925926,0.6851851851851852,1
222,27,1.6666666666666667,5.085585585585585,8.222222222222221,2.18018018018018,17,0.4459459459459459,2.18018018018018,1.936936936936937,1.572072072072072,0.90990990990991,0.3783783783783784,0.2882882882882883,0.1306306306306306,0.2432432432432432,0.0315315315315315,0.0045045045045045,0.7708565072302559,0.760845383759733,0.7597330367074527,0.7776119402985074,0.6477611940298508,0.6925373134328359,1
287,39,1.6756756756756757,4.70383275261324,7.358974358974359,1.9930313588850173,9,0.3797909407665505,1.9930313588850173,1.787456445993031,1.4599303135888502,0.9128919860627178,0.2961672473867596,0.2264808362369338,0.1289198606271777,0.1846689895470383,0.0209059233449477,0.0,0.8016997167138811,0.7516525023607177,0.7714825306893296,0.8413524057217165,0.7035110533159948,0.7230169050715215,1
74,14,0.0,3.72972972972973,5.285714285714286,1.7297297297297298,0,0.2702702702702703,1.7297297297297298,1.364864864864865,1.027027027027027,0.4729729729729729,0.1351351351351351,0.0135135135135135,0.0,0.1216216216216216,0.0,0.0,0.7623762376237624,0.7277227722772277,0.7425742574257426,0.7578125,0.53125,0.609375,1
98,7,1.2857142857142858,4.663265306122449,14.0,1.9489795918367347,1,0.4795918367346938,1.9489795918367347,1.5408163265306123,1.5816326530612246,0.8673469387755102,0.4081632653061224,0.2448979591836734,0.1020408163265306,0.1326530612244898,0.0714285714285714,0.0,0.8535211267605634,0.819718309859155,0.819718309859155,0.8941176470588236,0.7490196078431373,0.7686274509803922,1
222,25,1.0833333333333333,4.7342342342342345,8.88,1.936936936936937,3,0.4639639639639639,1.936936936936937,1.707207207207207,1.518018018018018,0.9369369369369368,0.3828828828828828,0.2522522522522522,0.1306306306306306,0.1666666666666666,0.054054054054054,0.0,0.793939393939394,0.743030303030303,0.7575757575757576,0.8146911519198664,0.6527545909849749,0.6944908180300501,1
294,26,1.5833333333333333,4.789115646258503,11.307692307692308,2.0510204081632653,6,0.3673469387755102,2.0510204081632653,1.816326530612245,1.54421768707483,0.9013605442176872,0.3095238095238095,0.2414965986394557,0.1020408163265306,0.1564625850340136,0.0136054421768707,0.0,0.7841726618705036,0.7553956834532374,0.7778776978417267,0.8051470588235294,0.6801470588235294,0.6495098039215687,1
110,11,1.9090909090909087,5.4363636363636365,10.0,2.1818181818181817,2,0.5545454545454546,2.1818181818181817,1.9181818181818184,1.818181818181818,1.0272727272727271,0.4545454545454545,0.3363636363636363,0.1909090909090909,0.2636363636363636,0.0818181818181818,0.0181818181818181,0.7319587628865979,0.6927835051546392,0.7319587628865979,0.7914438502673797,0.6711229946524064,0.6550802139037433,1
63,14,0.0,3.5396825396825395,4.5,1.6031746031746033,0,0.2063492063492063,1.6031746031746033,1.3650793650793651,0.9523809523809524,0.5873015873015873,0.0793650793650793,0.0,0.0,0.0634920634920634,0.0,0.0,0.7875,0.7375,0.75,0.6494845360824743,0.5567010309278351,0.6597938144329897,1
52,8,0.0,4.615384615384615,6.5,1.9038461538461535,1,0.3653846153846153,1.9038461538461535,1.6153846153846154,1.5769230769230769,0.8461538461538461,0.3076923076923077,0.1923076923076923,0.1153846153846153,0.173076923076923,0.0192307692307692,0.0,0.7419354838709677,0.6989247311827957,0.7096774193548387,0.8195488721804511,0.6541353383458647,0.6541353383458647,1
91,16,1.4,4.274725274725275,5.6875,2.0,2,0.1208791208791208,2.0,1.8571428571428568,1.2527472527472527,0.8351648351648352,0.0879120879120879,0.0879120879120879,0.0659340659340659,0.0989010989010989,0.0,0.0,0.8221476510067114,0.7583892617449665,0.7885906040268457,0.8695652173913043,0.6666666666666666,0.714975845410628,1
308,20,1.631578947368421,4.792207792207792,15.4,1.922077922077922,10,0.5324675324675324,1.922077922077922,1.6655844155844155,1.4870129870129871,0.8668831168831169,0.4318181818181818,0.3441558441558441,0.1493506493506493,0.2175324675324675,0.0259740259740259,0.0,0.7584415584415585,0.7186147186147186,0.7177489177489178,0.7374701670644391,0.6062052505966588,0.5883054892601431,1
447,51,1.568181818181818,4.720357941834452,8.764705882352942,1.9395973154362416,9,0.5145413870246085,1.9395973154362416,1.6823266219239374,1.4429530201342282,0.825503355704698,0.4026845637583892,0.3131991051454139,0.1387024608501118,0.2304250559284116,0.0648769574944071,0.0067114093959731,0.748792270531401,0.7047101449275363,0.6998792270531401,0.8079800498753117,0.6458852867830424,0.6450540315876975,1
109,51,1.181818181818182,5.89908256880734,2.1372549019607843,2.541284403669725,0,0.4862385321100917,2.541284403669725,2.18348623853211,2.192660550458716,1.18348623853211,0.4220183486238532,0.3486238532110092,0.2477064220183486,0.3027522935779816,0.0275229357798165,0.0,0.8283018867924529,0.7905660377358491,0.8056603773584906,0.7909738717339667,0.5843230403800475,0.6793349168646081,2
72,10,1.2,4.736111111111111,7.2,2.0277777777777777,3,0.5694444444444444,2.0277777777777777,1.5694444444444444,1.5,0.8194444444444444,0.4861111111111111,0.2916666666666667,0.1666666666666666,0.2916666666666667,0.0833333333333333,0.0,0.7620817843866171,0.7286245353159851,0.7286245353159851,0.7208121827411168,0.6345177664974619,0.6649746192893401,2
62,6,0.0,5.387096774193548,10.333333333333334,2.2419354838709675,4,0.5967741935483871,2.2419354838709675,1.9516129032258065,1.7096774193548387,1.0,0.4193548387096774,0.2741935483870967,0.1451612903225806,0.3225806451612903,0.0483870967741935,0.0161290322580645,0.7132075471698113,0.720754716981132,0.7018867924528301,0.8324873096446701,0.7208121827411168,0.6700507614213198,2
215,19,1.263157894736842,4.972093023255814,11.31578947368421,2.116279069767442,6,0.4186046511627907,2.116279069767442,1.7906976744186047,1.655813953488372,0.9302325581395348,0.3767441860465116,0.3023255813953488,0.0744186046511627,0.1302325581395348,0.0186046511627906,0.0,0.8301886792452831,0.7889150943396226,0.7983490566037735,0.8503184713375797,0.7006369426751592,0.7101910828025477,2
301,22,1.2727272727272727,5.259136212624584,13.681818181818182,2.1926910299003324,23,0.5448504983388704,2.1926910299003324,1.9335548172757475,1.6611295681063123,1.0199335548172757,0.4285714285714285,0.3554817275747508,0.2159468438538206,0.2956810631229236,0.0465116279069767,0.0,0.7421630094043887,0.7147335423197492,0.7249216300940439,0.835221421215242,0.6539649845520082,0.7126673532440783,2
69,8,1.125,4.405797101449275,8.625,1.8115942028985508,1,0.5507246376811594,1.8115942028985508,1.420289855072464,1.3768115942028984,0.7536231884057971,0.4057971014492754,0.2318840579710145,0.1304347826086956,0.2463768115942029,0.0579710144927536,0.0,0.8042553191489362,0.774468085106383,0.8212765957446808,0.8012048192771084,0.6987951807228916,0.6927710843373494,2
348,61,1.5,4.818965517241379,5.704918032786885,2.045977011494253,14,0.4396551724137931,2.045977011494253,1.7442528735632183,1.5258620689655171,0.9022988505747126,0.3534482758620689,0.2270114942528735,0.1206896551724138,0.1810344827586207,0.028735632183908,0.0,0.7760180995475113,0.7458521870286576,0.7609351432880844,0.803076923076923,0.6358974358974359,0.681025641025641,2
40,5,0.0,4.45,8.0,1.9,0,0.25,1.9,1.575,1.55,0.875,0.175,0.15,0.075,0.075,0.0,0.0,0.7956204379562044,0.7737226277372263,0.7591240875912408,0.78125,0.59375,0.7395833333333334,2
146,18,1.2352941176470589,4.931506849315069,8.11111111111111,2.0753424657534247,3,0.4041095890410959,2.0753424657534247,1.8493150684931507,1.6232876712328768,0.9452054794520548,0.363013698630137,0.3082191780821918,0.1027397260273972,0.1506849315068493,0.0205479452054794,0.0,0.8024475524475524,0.7290209790209791,0.7692307692307693,0.8588235294117647,0.68,0.6964705882352941,2
512,47,1.8928571428571428,4.630859375,10.893617021276595,1.974609375,8,0.390625,1.974609375,1.6796875,1.482421875,0.828125,0.318359375,0.23828125,0.09765625,0.1328125,0.009765625,0.0,0.765625,0.7106681034482759,0.7252155172413793,0.7831594634873323,0.6661698956780924,0.698956780923994,2
131,16,0.0,5.0534351145038165,8.1875,2.068702290076336,4,0.6335877862595419,2.068702290076336,1.938931297709924,1.4274809160305344,0.9618320610687024,0.4198473282442748,0.3129770992366412,0.2824427480916031,0.4274809160305343,0.099236641221374,0.0,0.7296786389413988,0.6899810964083176,0.6843100189035917,0.702020202020202,0.5883838383838383,0.5782828282828283,2
312,38,1.4615384615384617,4.166666666666667,8.210526315789474,1.6442307692307692,3,0.4967948717948718,1.6442307692307692,1.2852564102564104,1.2211538461538465,0.7403846153846154,0.3429487179487179,0.2564102564102564,0.157051282051282,0.2403846153846154,0.0384615384615384,0.0064102564102564,0.5588235294117647,0.5243407707910751,0.5192697768762677,0.5547445255474452,0.4832116788321168,0.5109489051094891,2
194,21,1.2777777777777777,4.798969072164948,9.238095238095235,2.015463917525773,5,0.4278350515463917,2.015463917525773,1.7577319587628866,1.5,0.8247422680412371,0.3505154639175257,0.268041237113402,0.1443298969072164,0.2010309278350515,0.0360824742268041,0.0,0.7771739130434783,0.7418478260869565,0.7228260869565217,0.7707948243992606,0.6432532347504621,0.66728280961183,2
141,11,1.5,4.475177304964539,12.818181818181818,1.8368794326241136,1,0.425531914893617,1.8368794326241136,1.6170212765957446,1.3546099290780145,0.7872340425531915,0.3191489361702128,0.2553191489361702,0.0709219858156028,0.1205673758865248,0.0070921985815602,0.0,0.7917525773195876,0.7463917525773196,0.756701030927835,0.8470588235294118,0.6617647058823529,0.7029411764705882,2
49,5,1.6,4.551020408163265,9.8,1.9387755102040816,3,0.4285714285714285,1.9387755102040816,1.6122448979591837,1.489795918367347,0.7959183673469388,0.2857142857142857,0.1836734693877551,0.0612244897959183,0.1428571428571428,0.0408163265306122,0.0,0.815028901734104,0.7745664739884393,0.8208092485549133,0.8617886178861789,0.7398373983739838,0.6991869918699187,2
217,22,1.2272727272727273,4.649769585253456,9.863636363636363,1.935483870967742,2,0.4930875576036866,1.935483870967742,1.6589861751152073,1.4470046082949308,0.8110599078341014,0.3225806451612903,0.2073732718894009,0.1290322580645161,0.2350230414746544,0.0875576036866359,0.0,0.7297979797979798,0.6906565656565656,0.696969696969697,0.7913043478260869,0.6382608695652174,0.6347826086956522,2
55,11,0.0,4.818181818181818,5.0,2.1272727272727274,3,0.4363636363636363,2.1272727272727274,1.8909090909090909,1.3818181818181818,0.8545454545454545,0.3454545454545454,0.2909090909090909,0.0363636363636363,0.2181818181818181,0.0181818181818181,0.0,0.7681159420289855,0.7294685990338164,0.7342995169082126,0.8187919463087249,0.6577181208053692,0.6644295302013423,2
226,21,1.368421052631579,4.86283185840708,10.761904761904765,2.057522123893805,6,0.4380530973451327,2.057522123893805,1.7920353982300885,1.5176991150442478,0.911504424778761,0.3584070796460177,0.2787610619469026,0.0663716814159292,0.1814159292035398,0.0176991150442477,0.0,0.7716262975778547,0.7393310265282583,0.76239907727797,0.860062893081761,0.6886792452830188,0.7327044025157232,2
523,34,2.4482758620689653,5.282982791586998,15.382352941176473,2.147227533460803,20,0.5793499043977055,2.147227533460803,1.8317399617590824,1.7418738049713194,1.0076481835564053,0.5047801147227533,0.3690248565965583,0.1950286806883365,0.2734225621414914,0.0516252390057361,0.0019120458891013,0.7861635220125787,0.7479784366576819,0.7511230907457322,0.8279124778237729,0.6688350088704909,0.6960378474275577,2
362,39,1.4166666666666667,4.7292817679558015,9.282051282051285,2.052486187845304,12,0.3895027624309392,2.052486187845304,1.707182320441989,1.477900552486188,0.8038674033149171,0.292817679558011,0.1906077348066298,0.0939226519337016,0.1464088397790055,0.0193370165745856,0.0,0.7535263548626577,0.7223459539717891,0.7245731254639941,0.8105906313645621,0.6313645621181263,0.6659877800407332,2
200,27,1.45,5.06,7.407407407407407,2.05,5,0.485,2.05,1.805,1.72,1.015,0.385,0.3,0.12,0.175,0.025,0.0,0.8286066584463625,0.7669543773119606,0.7731196054254007,0.860655737704918,0.6721311475409836,0.6983606557377049,2
227,17,1.411764705882353,4.92511013215859,13.352941176470589,2.0308370044052864,1,0.4669603524229075,2.0308370044052864,1.779735682819383,1.5903083700440528,0.9691629955947136,0.4229074889867841,0.3171806167400881,0.1365638766519823,0.2334801762114537,0.0484581497797356,0.0,0.8111490329920364,0.7758816837315131,0.7758816837315131,0.8693623639191291,0.713841368584759,0.7620528771384136,2
268,26,1.4583333333333333,4.902985074626866,10.307692307692308,2.041044776119403,9,0.4813432835820895,2.041044776119403,1.7723880597014925,1.541044776119403,0.8880597014925373,0.4104477611940298,0.2835820895522388,0.1417910447761194,0.2014925373134328,0.0559701492537313,0.0,0.781190019193858,0.736084452975048,0.7418426103646834,0.7976653696498055,0.6459143968871596,0.6939040207522698,2
86,9,1.3333333333333333,4.825581395348837,9.555555555555555,2.104651162790698,2,0.3488372093023256,2.104651162790698,1.813953488372093,1.558139534883721,0.8953488372093024,0.2674418604651162,0.2325581395348837,0.1162790697674418,0.1627906976744186,0.0,0.0,0.8048780487804879,0.7835365853658537,0.7347560975609756,0.8630705394190872,0.7095435684647303,0.7178423236514523,2
158,14,1.5,5.1835443037974684,11.285714285714286,2.113924050632912,13,0.5379746835443038,2.113924050632912,1.8734177215189876,1.6772151898734178,0.9556962025316456,0.4240506329113924,0.3481012658227848,0.1265822784810126,0.2278481012658227,0.0063291139240506,0.0,0.7271341463414634,0.7210365853658537,0.7134146341463414,0.7656565656565657,0.6101010101010101,0.6606060606060606,2
170,17,1.0588235294117647,4.9,10.0,2.011764705882353,7,0.4588235294117647,2.011764705882353,1.7823529411764707,1.5235294117647058,0.8823529411764706,0.3764705882352941,0.3176470588235294,0.0941176470588235,0.1647058823529411,0.0176470588235294,0.0,0.788109756097561,0.7378048780487805,0.7530487804878049,0.8316008316008316,0.6694386694386695,0.7297297297297297,2
62,8,1.125,5.258064516129032,7.75,2.193548387096774,2,0.5483870967741935,2.193548387096774,1.8387096774193548,1.7096774193548387,0.967741935483871,0.4354838709677419,0.3387096774193548,0.1935483870967742,0.2903225806451613,0.032258064516129,0.0,0.7938931297709924,0.7709923664122137,0.7519083969465649,0.8383838383838383,0.6565656565656566,0.7373737373737373,2
62,6,1.6,4.741935483870968,10.333333333333334,2.064516129032258,1,0.3387096774193548,2.064516129032258,1.7419354838709675,1.5483870967741935,0.8870967741935484,0.3064516129032258,0.2419354838709677,0.064516129032258,0.1451612903225806,0.0161290322580645,0.0,0.7,0.6652173913043479,0.6608695652173913,0.8502994011976048,0.6526946107784432,0.6586826347305389,2
48,4,4.0,4.8125,12.0,1.875,0,0.5833333333333334,1.875,1.5,1.6666666666666667,0.9166666666666666,0.4375,0.2083333333333333,0.1666666666666666,0.2291666666666666,0.0833333333333333,0.0,0.7814207650273224,0.7868852459016393,0.7814207650273224,0.8444444444444444,0.6592592592592592,0.6888888888888889,2
372,51,1.45,4.594086021505376,7.294117647058823,1.9166666666666667,5,0.4516129032258064,1.9166666666666667,1.6370967741935485,1.4435483870967742,0.8172043010752689,0.3440860215053763,0.239247311827957,0.0887096774193548,0.1666666666666666,0.0349462365591397,0.0,0.7526236881559221,0.7031484257871065,0.7098950524737632,0.7612095933263816,0.6600625651720542,0.6715328467153284,2
212,30,1.3076923076923077,4.679245283018868,7.066666666666666,2.037735849056604,2,0.3915094339622642,2.037735849056604,1.69811320754717,1.4952830188679245,0.8207547169811321,0.2877358490566037,0.1886792452830188,0.1226415094339622,0.2169811320754717,0.0235849056603773,0.0,0.791025641025641,0.7294871794871794,0.764102564102564,0.7623239436619719,0.6390845070422535,0.6654929577464789,2
261,37,1.1612903225806452,4.773946360153257,7.054054054054054,1.9616858237547887,2,0.5095785440613027,1.9616858237547887,1.735632183908046,1.4559386973180075,0.8735632183908046,0.3754789272030651,0.3065134099616858,0.1800766283524904,0.2950191570881226,0.1034482758620689,0.0,0.7331975560081466,0.7189409368635438,0.7087576374745418,0.7799442896935933,0.5766016713091922,0.6504178272980501,2
205,34,1.3333333333333333,4.741463414634146,6.029411764705882,1.975609756097561,6,0.4292682926829268,1.975609756097561,1.7707317073170732,1.4195121951219511,0.8878048780487805,0.3268292682926829,0.2536585365853658,0.1414634146341463,0.2146341463414634,0.0097560975609756,0.0,0.7467191601049868,0.7178477690288714,0.7191601049868767,0.8134057971014492,0.625,0.7028985507246377,2
162,17,1.2,4.512345679012346,9.529411764705882,1.876543209876543,1,0.4691358024691358,1.876543209876543,1.5493827160493827,1.432098765432099,0.7901234567901234,0.3580246913580246,0.2160493827160493,0.1049382716049382,0.1543209876543209,0.0555555555555555,0.0,0.7301587301587301,0.708994708994709,0.7178130511463845,0.8465346534653465,0.6955445544554455,0.7128712871287128,2
50,5,2.2,4.52,10.0,1.92,0,0.24,1.92,1.64,1.56,0.86,0.12,0.12,0.14,0.18,0.0,0.0,0.8011363636363636,0.7102272727272727,0.7386363636363636,0.7380952380952381,0.492063492063492,0.6507936507936508,2
203,30,1.0333333333333334,4.955665024630542,6.766666666666667,2.1970443349753697,12,0.3596059113300492,2.1970443349753697,1.8522167487684729,1.6305418719211822,0.896551724137931,0.3251231527093596,0.2512315270935961,0.0788177339901477,0.1330049261083744,0.0049261083743842,0.0,0.7959949937421777,0.7259073842302879,0.7959949937421777,0.8246205733558178,0.6677908937605397,0.7048903878583473,2
344,41,1.5757575757575757,4.491279069767442,8.390243902439025,1.9040697674418603,2,0.4186046511627907,1.9040697674418603,1.6511627906976745,1.3313953488372092,0.7936046511627907,0.313953488372093,0.2325581395348837,0.0901162790697674,0.188953488372093,0.0348837209302325,0.0,0.8006672226855713,0.7689741451209341,0.7731442869057548,0.7988304093567251,0.6900584795321637,0.7286549707602339,2
275,45,1.3461538461538465,4.356363636363636,6.111111111111111,1.7418181818181817,3,0.4981818181818181,1.7418181818181817,1.4763636363636363,1.269090909090909,0.7418181818181818,0.2690909090909091,0.1745454545454545,0.149090909090909,0.2690909090909091,0.0545454545454545,0.0036363636363636,0.6923913043478261,0.6630434782608695,0.691304347826087,0.7356143079315708,0.6018662519440124,0.6951788491446346,2
39,6,0.0,4.230769230769231,6.5,1.7692307692307692,1,0.3076923076923077,1.7692307692307692,1.564102564102564,1.358974358974359,0.7692307692307693,0.282051282051282,0.2051282051282051,0.1282051282051282,0.1538461538461538,0.0256410256410256,0.0,0.8174603174603174,0.7698412698412699,0.7698412698412699,0.7931034482758621,0.5862068965517241,0.6896551724137931,2
79,11,1.125,4.316455696202532,7.181818181818182,1.8860759493670889,2,0.3544303797468354,1.8860759493670889,1.5063291139240509,1.3544303797468351,0.6962025316455697,0.2151898734177215,0.1645569620253164,0.0886075949367088,0.1139240506329113,0.0126582278481012,0.0,0.7701149425287356,0.7203065134099617,0.7011494252873564,0.8011049723756906,0.6408839779005525,0.6850828729281768,2
644,68,1.2105263157894737,4.759316770186335,9.470588235294118,2.0232919254658386,22,0.4472049689440994,2.0232919254658386,1.700310559006211,1.4440993788819876,0.812111801242236,0.3043478260869565,0.2158385093167701,0.0993788819875776,0.2034161490683229,0.0279503105590062,0.0,0.7268595041322314,0.6805785123966942,0.6826446280991736,0.7535171637591446,0.6049521665728756,0.6263365222284749,2
104,10,2.2,5.1923076923076925,10.4,2.1923076923076925,4,0.4615384615384615,2.1923076923076925,1.9711538461538465,1.6730769230769231,1.0096153846153846,0.375,0.2692307692307692,0.125,0.173076923076923,0.048076923076923,0.0,0.7837209302325582,0.7627906976744186,0.7325581395348837,0.78125,0.659375,0.6625,2
22,6,1.5,4.863636363636363,3.6666666666666665,2.0454545454545454,0,0.5454545454545454,2.0454545454545454,1.7727272727272727,1.4090909090909092,0.8181818181818182,0.4090909090909091,0.3181818181818182,0.1818181818181818,0.2727272727272727,0.0454545454545454,0.0,0.7738095238095238,0.7142857142857143,0.7142857142857143,0.8387096774193549,0.7258064516129032,0.6935483870967742,2
191,20,1.25,5.06282722513089,9.55,2.099476439790576,4,0.4659685863874345,2.099476439790576,1.8219895287958117,1.6806282722513088,0.9790575916230366,0.387434554973822,0.2984293193717277,0.1361256544502617,0.2094240837696335,0.0104712041884816,0.0,0.8244473342002601,0.7841352405721717,0.8010403120936281,0.8423817863397548,0.6690017513134852,0.7267950963222417,2
53,6,0.0,5.377358490566038,8.833333333333334,2.1320754716981134,1,0.6792452830188679,2.1320754716981134,1.9433962264150944,1.7358490566037736,1.1132075471698113,0.6037735849056604,0.3584905660377358,0.2264150943396226,0.320754716981132,0.1509433962264151,0.0,0.658008658008658,0.6320346320346321,0.6363636363636364,0.6949152542372882,0.5480225988700564,0.5141242937853108,2
89,8,0.0,4.393258426966292,11.125,1.8876404494382024,0,0.3707865168539326,1.8876404494382024,1.6067415730337078,1.247191011235955,0.7528089887640449,0.348314606741573,0.3146067415730337,0.1011235955056179,0.2134831460674157,0.0224719101123595,0.0,0.7762711864406779,0.6915254237288135,0.7288135593220338,0.9095477386934674,0.7587939698492462,0.7185929648241206,2
781,90,1.671641791044776,5.183098591549296,8.677777777777777,2.1574903969270167,39,0.499359795134443,2.1574903969270167,1.9244558258642763,1.6696542893725992,1.0089628681177978,0.4161331626120358,0.3188220230473751,0.1536491677336747,0.2407170294494238,0.0409731113956466,0.0,0.7359187442289935,0.6946752847029856,0.7116035703293321,0.774613506916192,0.6049633848657445,0.6602929210740439,2
245,38,2.05,5.204081632653061,6.447368421052632,2.179591836734694,20,0.4938775510204081,2.179591836734694,1.889795918367347,1.7387755102040816,0.9959183673469388,0.4244897959183673,0.3346938775510204,0.1714285714285714,0.2612244897959184,0.0285714285714285,0.0040816326530612,0.7688540646425074,0.7345739471106758,0.732615083251714,0.7974025974025974,0.6233766233766234,0.6571428571428571,2
127,42,0.0,4.708661417322834,3.023809523809524,1.9133858267716533,1,0.4330708661417323,1.9133858267716533,1.748031496062992,1.4015748031496065,0.8503937007874016,0.3543307086614173,0.2125984251968504,0.1496062992125984,0.1889763779527559,0.0551181102362204,0.0078740157480314,0.556989247311828,0.5096774193548387,0.5505376344086022,0.5680473372781065,0.4615384615384615,0.5118343195266272,2
307,24,1.2727272727272727,4.811074918566775,12.791666666666666,1.977198697068404,5,0.4625407166123778,1.977198697068404,1.6416938110749186,1.5993485342019544,0.8859934853420195,0.3615635179153094,0.263843648208469,0.1270358306188925,0.2052117263843648,0.009771986970684,0.0,0.7636986301369864,0.7208904109589042,0.7311643835616438,0.7986030267753201,0.6204889406286379,0.7043073341094296,2
325,45,1.1764705882352942,4.704615384615384,7.222222222222222,1.9138461538461535,5,0.4615384615384615,1.9138461538461535,1.643076923076923,1.4676923076923076,0.8646153846153846,0.3938461538461538,0.283076923076923,0.163076923076923,0.2369230769230769,0.0276923076923076,0.0,0.7190357439733999,0.657522859517872,0.6824605153782212,0.7970353477765109,0.6191562143671607,0.6659064994298746,2
192,30,1.1764705882352942,4.666666666666667,6.4,1.9427083333333333,1,0.4791666666666667,1.9427083333333333,1.5677083333333333,1.5,0.8385416666666666,0.390625,0.2604166666666667,0.1354166666666666,0.2395833333333333,0.0729166666666666,0.0,0.7556818181818182,0.7301136363636364,0.7230113636363636,0.720703125,0.59765625,0.591796875,2
906,117,1.7,4.928256070640177,7.743589743589744,2.094922737306843,37,0.4470198675496689,2.094922737306843,1.836644591611479,1.5596026490066226,0.9172185430463576,0.3609271523178808,0.2527593818984547,0.1401766004415011,0.2373068432671081,0.0286975717439293,0.0022075055187637,0.7752202330207445,0.7331628303495311,0.7422563228189827,0.8095238095238095,0.6418892760356175,0.6914440572977159,2
63,8,1.125,3.936507936507936,7.875,1.7142857142857142,0,0.4603174603174603,1.7142857142857142,1.2857142857142858,1.0793650793650793,0.5396825396825397,0.3968253968253968,0.1269841269841269,0.1111111111111111,0.2222222222222222,0.0476190476190476,0.0,0.6,0.5567567567567567,0.5891891891891892,0.5081967213114754,0.5,0.4344262295081967,2
529,59,1.4038461538461535,4.66351606805293,8.966101694915254,1.835538752362949,9,0.5784499054820416,1.835538752362949,1.5822306238185255,1.4253308128544424,0.8355387523629489,0.4328922495274102,0.2873345935727788,0.1436672967863894,0.2835538752362949,0.0415879017013232,0.0018903591682419,0.7172449508026929,0.6918694976696013,0.6784049715173486,0.7621776504297995,0.6239255014326648,0.6375358166189111,2
116,20,2.4285714285714284,5.0344827586206895,5.8,2.0948275862068964,2,0.3793103448275862,2.0948275862068964,1.8448275862068968,1.7413793103448276,1.0258620689655171,0.3448275862068966,0.2844827586206896,0.1120689655172413,0.1551724137931034,0.0172413793103448,0.0,0.7746781115879828,0.7489270386266095,0.7446351931330472,0.8275862068965517,0.6781609195402298,0.7241379310344828,2
319,45,1.5,4.5141065830721,7.088888888888889,1.9529780564263324,1,0.4169278996865204,1.9529780564263324,1.7304075235109715,1.3197492163009403,0.8307210031347962,0.3385579937304075,0.2758620689655172,0.115987460815047,0.238244514106583,0.0219435736677116,0.0,0.7361359570661896,0.6851520572450805,0.6914132379248659,0.7904642409033877,0.5759096612296111,0.6511919698870765,2
463,54,1.391304347826087,4.4838012958963285,8.574074074074074,1.958963282937365,6,0.3736501079913606,1.958963282937365,1.632829373650108,1.4146868250539957,0.7926565874730022,0.3131749460043196,0.2462203023758099,0.1123110151187904,0.1900647948164147,0.0345572354211663,0.0,0.7929324240545568,0.7365158090514569,0.7724736515809052,0.8173913043478261,0.6443478260869565,0.6956521739130435,2
149,16,1.0625,4.1879194630872485,9.3125,1.7718120805369129,1,0.3691275167785235,1.7718120805369129,1.4429530201342282,1.3355704697986577,0.6845637583892618,0.2885906040268456,0.1946308724832214,0.0536912751677852,0.1073825503355704,0.0067114093959731,0.0,0.8177966101694916,0.7817796610169492,0.7817796610169492,0.8105590062111802,0.6894409937888198,0.7515527950310559,2
60,8,1.25,4.916666666666667,7.5,2.05,0,0.65,2.05,1.6833333333333331,1.4666666666666666,0.8166666666666667,0.5666666666666667,0.35,0.25,0.4,0.15,0.0,0.6808510638297872,0.6680851063829787,0.6595744680851063,0.7485714285714286,0.6285714285714286,0.5828571428571429,2
176,38,1.4375,4.204545454545454,4.631578947368421,1.8465909090909087,3,0.2784090909090909,1.8465909090909087,1.625,1.2215909090909092,0.7784090909090909,0.2215909090909091,0.1534090909090909,0.0738636363636363,0.1420454545454545,0.0113636363636363,0.0,0.6737967914438503,0.6078431372549019,0.6203208556149733,0.7258485639686684,0.5900783289817232,0.5691906005221932,2
68,11,1.4,5.029411764705882,6.181818181818182,2.147058823529412,5,0.3676470588235294,2.147058823529412,1.8235294117647056,1.7647058823529411,1.0147058823529411,0.3382352941176471,0.2794117647058823,0.1176470588235294,0.2205882352941176,0.0294117647058823,0.0,0.753731343283582,0.7089552238805971,0.746268656716418,0.8434343434343434,0.6313131313131313,0.6767676767676768,2
380,34,1.5806451612903225,4.931578947368421,11.176470588235292,2.068421052631579,16,0.4578947368421052,2.068421052631579,1.7842105263157897,1.631578947368421,0.8868421052631579,0.35,0.2631578947368421,0.1026315789473684,0.1578947368421052,0.0131578947368421,0.0,0.8088531187122736,0.7578806170355467,0.7920858484238766,0.8492779783393501,0.6796028880866426,0.7120938628158845,2
118,14,1.2,5.169491525423729,8.428571428571429,2.1864406779661016,6,0.4745762711864407,2.1864406779661016,1.9322033898305084,1.576271186440678,0.9322033898305084,0.3559322033898305,0.2542372881355932,0.1525423728813559,0.2542372881355932,0.0677966101694915,0.0169491525423728,0.7254098360655737,0.7008196721311475,0.7008196721311475,0.7486338797814208,0.6010928961748634,0.639344262295082,2
147,19,1.3888888888888888,5.01360544217687,7.736842105263157,2.095238095238096,10,0.4761904761904761,2.095238095238096,1.8231292517006803,1.5170068027210883,0.9047619047619048,0.4081632653061224,0.2993197278911564,0.1564625850340136,0.2108843537414966,0.0340136054421768,0.0,0.6740994854202401,0.6500857632933105,0.6500857632933105,0.703016241299304,0.5962877030162413,0.605568445475638,2
108,17,1.7142857142857142,4.074074074074074,6.352941176470588,1.7037037037037035,1,0.4074074074074074,1.7037037037037035,1.2407407407407407,1.2314814814814814,0.6111111111111112,0.2962962962962963,0.1944444444444444,0.0833333333333333,0.1388888888888889,0.037037037037037,0.0,0.7289156626506024,0.7349397590361446,0.6746987951807228,0.8526785714285714,0.6607142857142857,0.6116071428571429,2
52,7,0.0,5.423076923076923,7.428571428571429,2.269230769230769,2,0.4807692307692308,2.269230769230769,2.0576923076923075,1.7884615384615383,1.0769230769230769,0.4038461538461538,0.3269230769230769,0.1538461538461538,0.2692307692307692,0.0961538461538461,0.0192307692307692,0.762114537444934,0.6960352422907489,0.7136563876651982,0.7558139534883721,0.6511627906976745,0.6162790697674418,2
191,17,1.411764705882353,4.670157068062827,11.235294117647058,1.968586387434555,6,0.3979057591623036,1.968586387434555,1.743455497382199,1.4293193717277486,0.8115183246073299,0.3089005235602094,0.2041884816753926,0.0994764397905759,0.193717277486911,0.0,0.0,0.77,0.7385714285714285,0.7342857142857143,0.7627450980392156,0.6039215686274509,0.6450980392156863,2
171,13,1.0714285714285714,5.087719298245614,13.153846153846152,2.0935672514619883,15,0.543859649122807,2.0935672514619883,1.7777777777777777,1.7076023391812865,0.953216374269006,0.4385964912280701,0.3157894736842105,0.1403508771929824,0.239766081871345,0.023391812865497,0.0,0.8209169054441261,0.7750716332378224,0.7836676217765043,0.8346007604562737,0.7167300380228137,0.7376425855513308,2
169,37,1.1666666666666667,5.3609467455621305,4.567567567567568,2.0710059171597632,3,0.6982248520710059,2.0710059171597632,1.7810650887573964,1.680473372781065,1.0355029585798816,0.5384615384615384,0.4023668639053254,0.301775147928994,0.408284023668639,0.0769230769230769,0.0,0.7024456521739131,0.6521739130434783,0.657608695652174,0.6802120141342756,0.5353356890459364,0.5512367491166078,2
320,35,1.9,4.5875,9.142857142857142,1.884375,7,0.459375,1.884375,1.59375,1.3875,0.79375,0.3625,0.275,0.13125,0.2,0.040625,0.0,0.7388646288209607,0.7109170305676856,0.7013100436681222,0.7846715328467153,0.6545012165450121,0.6654501216545012,2
579,44,1.475,4.960276338514681,13.159090909090908,2.09153713298791,21,0.4939550949913644,2.09153713298791,1.753022452504318,1.614853195164076,0.924006908462867,0.3816925734024179,0.2884283246977547,0.1191709844559585,0.2124352331606217,0.0310880829015544,0.0,0.7717678100263852,0.7286719437115216,0.7409850483729111,0.7807486631016043,0.6678550207961973,0.6922162804515746,2
714,85,1.1666666666666667,5.043417366946779,8.4,2.1050420168067228,43,0.4887955182072829,2.1050420168067228,1.862745098039216,1.6176470588235294,0.9467787114845938,0.4061624649859944,0.2801120448179272,0.1484593837535014,0.2254901960784313,0.0280112044817927,0.0,0.7762652705061082,0.7280977312390925,0.7420593368237347,0.8314553990610328,0.6845070422535211,0.7267605633802817,2
46,8,0.0,4.5,5.75,1.891304347826087,1,0.5,1.891304347826087,1.5869565217391304,1.3695652173913044,0.6739130434782609,0.3478260869565217,0.1304347826086956,0.0869565217391304,0.217391304347826,0.0,0.0,0.7267080745341615,0.7018633540372671,0.7391304347826086,0.6521739130434783,0.5652173913043478,0.5826086956521739,2
239,27,1.3478260869565215,4.7824267782426775,8.851851851851851,2.01673640167364,6,0.4769874476987448,2.01673640167364,1.786610878661088,1.4560669456066946,0.8619246861924686,0.3974895397489539,0.301255230125523,0.1087866108786611,0.2384937238493724,0.0334728033472803,0.0,0.7697441601779755,0.7163515016685206,0.7530589543937709,0.7637195121951219,0.6371951219512195,0.6890243902439024,2
64,11,1.181818181818182,4.1875,5.818181818181818,1.90625,0,0.25,1.90625,1.703125,1.140625,0.75,0.234375,0.1875,0.0625,0.171875,0.015625,0.0,0.9117647058823528,0.8970588235294118,0.9019607843137256,0.9214285714285714,0.7642857142857142,0.85,2
184,34,1.125,5.059782608695652,5.411764705882353,2.114130434782609,9,0.4673913043478261,2.114130434782609,1.9184782608695647,1.5923913043478262,0.967391304347826,0.4076086956521739,0.3097826086956521,0.1956521739130435,0.266304347826087,0.0489130434782608,0.0,0.7876344086021505,0.7446236559139785,0.7580645161290323,0.7612208258527827,0.6157989228007181,0.6157989228007181,2
111,11,1.2727272727272727,4.837837837837838,10.090909090909092,2.045045045045045,5,0.4864864864864865,2.045045045045045,1.6936936936936935,1.5855855855855856,0.8378378378378378,0.3783783783783784,0.2432432432432432,0.09009009009009,0.1981981981981982,0.027027027027027,0.0,0.7511848341232228,0.7109004739336493,0.7488151658767772,0.7799352750809061,0.6699029126213593,0.6893203883495146,2
836,94,1.7564102564102564,4.797846889952153,8.893617021276595,2.0322966507177034,32,0.4557416267942584,2.0322966507177034,1.744019138755981,1.505980861244019,0.8827751196172249,0.3863636363636363,0.291866028708134,0.1399521531100478,0.2105263157894736,0.0191387559808612,0.0011961722488038,0.7699367088607595,0.7291139240506329,0.7398734177215189,0.818693206404154,0.6707053223712679,0.685417568152315,2
47,5,0.0,4.48936170212766,9.4,1.9148936170212767,1,0.4680851063829787,1.9148936170212767,1.6170212765957446,1.25531914893617,0.7021276595744681,0.3829787234042553,0.3404255319148936,0.1489361702127659,0.2340425531914893,0.0425531914893617,0.0425531914893617,0.7439024390243902,0.7317073170731707,0.7378048780487805,0.8717948717948718,0.6324786324786325,0.717948717948718,2
41,7,0.0,5.073170731707317,5.857142857142857,2.1707317073170733,2,0.4878048780487805,2.1707317073170733,1.804878048780488,1.6829268292682926,0.902439024390244,0.4146341463414634,0.2926829268292683,0.2682926829268293,0.2926829268292683,0.024390243902439,0.0,0.7710843373493976,0.7108433734939759,0.7469879518072289,0.7983870967741935,0.5967741935483871,0.6612903225806451,2
487,56,1.0892857142857142,4.632443531827516,8.696428571428571,1.915811088295688,7,0.4948665297741273,1.915811088295688,1.6837782340862424,1.406570841889117,0.8521560574948666,0.3470225872689938,0.2587268993839836,0.1273100616016427,0.2669404517453799,0.0246406570841889,0.002053388090349,0.7694050991501417,0.7320113314447592,0.75014164305949,0.8186813186813187,0.641287284144427,0.6891679748822606,2
248,26,1.4545454545454546,4.895161290322581,9.538461538461538,2.024193548387097,6,0.4798387096774194,2.024193548387097,1.7903225806451613,1.5524193548387095,0.8911290322580645,0.4032258064516129,0.3225806451612903,0.1209677419354838,0.1935483870967742,0.0282258064516129,0.0,0.8047767393561787,0.7590861889927311,0.7653167185877466,0.8398876404494382,0.6811797752808989,0.7331460674157303,2
163,23,1.7647058823529411,4.815950920245399,7.086956521739131,1.987730061349693,4,0.4846625766871165,1.987730061349693,1.6687116564417177,1.5644171779141105,0.8650306748466258,0.4539877300613497,0.3865030674846625,0.0858895705521472,0.1717791411042944,0.0306748466257668,0.0,0.8425324675324676,0.7824675324675324,0.8051948051948052,0.8616071428571429,0.6808035714285714,0.6964285714285714,2
90,9,1.2222222222222223,4.733333333333333,10.0,1.9555555555555555,3,0.5,1.9555555555555555,1.6333333333333333,1.511111111111111,0.8222222222222222,0.3444444444444444,0.2333333333333333,0.1222222222222222,0.2222222222222222,0.0444444444444444,0.0,0.7537537537537538,0.7687687687687688,0.7057057057057057,0.8708333333333333,0.6375,0.6125,2
209,30,1.391304347826087,5.215311004784689,6.966666666666667,2.200956937799043,6,0.4880382775119617,2.200956937799043,1.861244019138756,1.784688995215311,0.9425837320574164,0.3827751196172249,0.3014354066985646,0.1196172248803827,0.2392344497607655,0.0095693779904306,0.0,0.7284090909090909,0.7090909090909091,0.6988636363636364,0.7850746268656716,0.6417910447761194,0.673134328358209,2
192,23,1.3043478260869563,5.171875,8.347826086956522,2.125,7,0.515625,2.125,1.8385416666666667,1.71875,0.96875,0.40625,0.3020833333333333,0.125,0.2083333333333333,0.0364583333333333,0.0,0.7675879396984925,0.7437185929648241,0.7361809045226131,0.8053244592346089,0.6522462562396006,0.7071547420965059,2
184,20,1.55,4.668478260869565,9.2,2.0380434782608696,2,0.3641304347826087,2.0380434782608696,1.6195652173913044,1.625,0.8260869565217391,0.3315217391304347,0.2608695652173913,0.108695652173913,0.1413043478260869,0.0217391304347826,0.0,0.8266666666666667,0.7703703703703704,0.7748148148148148,0.8455284552845529,0.6707317073170732,0.7215447154471545,2
304,72,1.5,4.315789473684211,4.222222222222222,1.819078947368421,2,0.3684210526315789,1.819078947368421,1.5328947368421053,1.3157894736842106,0.743421052631579,0.2730263157894737,0.1907894736842105,0.0953947368421052,0.1546052631578947,0.0230263157894736,0.0032894736842105,0.7395626242544732,0.6928429423459245,0.7037773359840954,0.7777777777777778,0.6282051282051282,0.6737891737891738,2
181,32,1.5384615384615383,4.0,5.65625,1.7348066298342542,1,0.3535911602209944,1.7348066298342542,1.5193370165745856,1.0607734806629834,0.6353591160220995,0.2541436464088398,0.1878453038674033,0.0441988950276243,0.1657458563535911,0.005524861878453,0.005524861878453,0.6586715867158671,0.6476014760147601,0.6180811808118081,0.7722222222222223,0.5666666666666667,0.5638888888888889,2
85,8,1.5,4.529411764705882,10.625,1.952941176470588,2,0.388235294117647,1.952941176470588,1.6352941176470588,1.4470588235294115,0.788235294117647,0.3294117647058823,0.2235294117647059,0.0941176470588235,0.1764705882352941,0.0,0.0,0.7733333333333333,0.73,0.7633333333333333,0.8325581395348837,0.6744186046511628,0.7116279069767442,2
50,8,0.0,3.7,6.25,1.5,0,0.56,1.5,1.0,1.14,0.54,0.34,0.16,0.06,0.26,0.0,0.0,0.725925925925926,0.6666666666666666,0.7037037037037037,0.8588235294117647,0.6705882352941176,0.6941176470588235,2
44,9,1.1111111111111112,4.568181818181818,4.888888888888889,1.8863636363636365,0,0.4318181818181818,1.8863636363636365,1.6136363636363635,1.5,0.8636363636363636,0.3181818181818182,0.1590909090909091,0.0909090909090909,0.1818181818181818,0.0454545454545454,0.0,0.821656050955414,0.7643312101910829,0.7643312101910829,0.8761061946902655,0.6371681415929203,0.7699115044247787,2
434,46,1.5833333333333333,4.702764976958525,9.434782608695652,1.9631336405529956,9,0.4930875576036866,1.9631336405529956,1.6705069124423964,1.4700460829493087,0.8663594470046083,0.412442396313364,0.2764976958525346,0.1705069124423963,0.2442396313364055,0.0691244239631336,0.0023041474654377,0.7696629213483146,0.7234706616729089,0.7284644194756554,0.8223175965665236,0.6377682403433477,0.6600858369098712,2
999,98,1.5853658536585369,4.775775775775776,10.193877551020408,1.992992992992993,27,0.4994994994994995,1.992992992992993,1.7327327327327329,1.4694694694694694,0.8928928928928929,0.4214214214214214,0.3053053053053053,0.1491491491491491,0.2612612612612612,0.05005005005005,0.0,0.7467446186553282,0.7108689875099654,0.7079457879351582,0.7647912885662432,0.6145190562613431,0.6526315789473685,2
149,17,1.2666666666666666,5.02013422818792,8.764705882352942,2.040268456375839,10,0.5033557046979866,2.040268456375839,1.8523489932885904,1.6241610738255037,0.8859060402684564,0.3422818791946309,0.2348993288590604,0.1275167785234899,0.2214765100671141,0.0201342281879194,0.0,0.7236180904522613,0.7018425460636516,0.7018425460636516,0.7802690582959642,0.6031390134529148,0.6748878923766816,2
609,42,1.825,5.254515599343185,14.5,2.1149425287356323,33,0.6765188834154351,2.1149425287356323,1.7142857142857142,1.679802955665025,0.9244663382594416,0.5106732348111659,0.3399014778325123,0.2692939244663382,0.3809523809523809,0.0476190476190476,0.0016420361247947,0.6554001554001554,0.6375291375291375,0.6216006216006216,0.5923273657289002,0.4941176470588235,0.528388746803069,3
83,8,1.1666666666666667,4.771084337349397,10.375,1.9397590361445785,2,0.5662650602409639,1.9397590361445785,1.6626506024096386,1.4819277108433735,0.8674698795180723,0.4698795180722891,0.3493975903614458,0.1566265060240964,0.2771084337349397,0.0240963855421686,0.0,0.6613418530351438,0.6166134185303515,0.6613418530351438,0.7652173913043478,0.6434782608695652,0.6304347826086957,3
150,12,1.5,4.746666666666667,12.5,2.0,3,0.4333333333333333,2.0,1.5733333333333333,1.653333333333333,0.88,0.38,0.24,0.0933333333333333,0.1933333333333333,0.02,0.0,0.7700534759358288,0.7130124777183601,0.6844919786096256,0.7737226277372263,0.6180048661800487,0.6520681265206812,3
147,15,1.25,4.659863945578231,9.8,1.9387755102040816,2,0.4489795918367347,1.9387755102040816,1.7210884353741496,1.4149659863945578,0.8571428571428571,0.3197278911564626,0.2517006802721088,0.1292517006802721,0.1904761904761904,0.0136054421768707,0.0068027210884353,0.8198874296435272,0.7692307692307693,0.7936210131332082,0.8481675392670157,0.693717277486911,0.7460732984293194,3
591,88,1.3888888888888888,4.6818950930626055,6.715909090909091,1.9746192893401016,4,0.3908629441624365,1.9746192893401016,1.72419627749577,1.50253807106599,0.8358714043993232,0.3316412859560068,0.2554991539763113,0.0761421319796954,0.1522842639593908,0.015228426395939,0.0,0.8210332103321033,0.7730627306273062,0.7933579335793358,0.8706182281708095,0.6864244741873805,0.751434034416826,3
720,81,1.368421052631579,4.755555555555556,8.88888888888889,1.868055555555556,13,0.6388888888888888,1.868055555555556,1.6180555555555556,1.3652777777777778,0.8680555555555556,0.4916666666666666,0.3513888888888888,0.1736111111111111,0.3152777777777777,0.0875,0.0,0.7331356560415122,0.6994069681245367,0.6960711638250556,0.786727456940223,0.6180344478216818,0.6474164133738601,3
158,18,1.3529411764705883,4.7405063291139244,8.777777777777779,1.9746835443037976,5,0.4493670886075949,1.9746835443037976,1.7531645569620251,1.481012658227848,0.8924050632911392,0.3481012658227848,0.2784810126582278,0.1075949367088607,0.170886075949367,0.0253164556962025,0.0,0.7589134125636672,0.735144312393888,0.7385398981324278,0.8088578088578089,0.6666666666666666,0.6899766899766899,3
93,10,1.2,5.086021505376344,9.3,2.075268817204301,2,0.4946236559139785,2.075268817204301,1.8602150537634408,1.6774193548387095,1.043010752688172,0.4086021505376344,0.3333333333333333,0.1505376344086021,0.2043010752688172,0.043010752688172,0.010752688172043,0.8148148148148148,0.7486772486772487,0.7883597883597884,0.8409893992932862,0.7102473498233216,0.7526501766784452,3
672,92,1.7391304347826086,4.636904761904762,7.304347826086956,1.956845238095238,7,0.4136904761904761,1.956845238095238,1.7514880952380951,1.4136904761904765,0.8526785714285714,0.3452380952380952,0.2797619047619047,0.0892857142857142,0.2053571428571428,0.0133928571428571,0.0,0.7401639344262295,0.6991803278688524,0.705327868852459,0.7743764172335601,0.5997732426303855,0.6485260770975056,3
27,3,0.0,5.851851851851852,9.0,2.3703703703703702,2,0.6666666666666666,2.3703703703703702,2.037037037037037,1.7777777777777777,1.0,0.4444444444444444,0.3703703703703703,0.1851851851851851,0.3703703703703703,0.037037037037037,0.0,0.72,0.696,0.68,0.7604166666666666,0.6041666666666666,0.59375,3
1824,244,1.6586538461538465,4.934210526315789,7.475409836065574,2.026864035087719,62,0.5339912280701754,2.026864035087719,1.7861842105263157,1.512609649122807,0.9035087719298246,0.4287280701754385,0.3168859649122807,0.1787280701754386,0.2927631578947368,0.03125,0.0043859649122807,0.6902654867256637,0.6618907149880601,0.6634358758252563,0.7105114172485375,0.5912436308737498,0.6093602566521985,3
447,48,1.6388888888888888,4.574944071588367,9.3125,1.9843400447427293,11,0.3624161073825503,1.9843400447427293,1.7404921700223714,1.3914988814317673,0.8187919463087249,0.2550335570469799,0.1879194630872483,0.0827740492170022,0.1901565995525727,0.017897091722595,0.0,0.7655172413793103,0.7341692789968652,0.7341692789968652,0.8298429319371727,0.6579406631762653,0.6823734729493892,3
341,31,1.4642857142857142,4.979472140762463,11.0,2.0439882697947214,8,0.4281524926686217,2.0439882697947214,1.7947214076246334,1.6744868035190617,0.9618768328445748,0.3695014662756598,0.2991202346041056,0.1495601173020528,0.1847507331378299,0.0351906158357771,0.0,0.7698001480384901,0.7276091783863805,0.7105847520355293,0.805168986083499,0.6202783300198808,0.6769383697813122,3
117,10,2.0,4.623931623931624,11.7,1.948717948717949,4,0.3162393162393162,1.948717948717949,1.6837606837606838,1.5811965811965811,0.9145299145299144,0.2649572649572649,0.2222222222222222,0.1025641025641025,0.1452991452991453,0.0085470085470085,0.0,0.7706855791962175,0.7304964539007093,0.7399527186761229,0.8360655737704918,0.6655737704918033,0.7278688524590164,3
2172,298,1.4645669291338583,5.029926335174954,7.288590604026845,2.1372007366482504,87,0.501841620626151,2.1372007366482504,1.8499079189686924,1.5561694290976058,0.91804788213628,0.4106813996316759,0.2716390423572744,0.1666666666666666,0.2417127071823204,0.0308471454880294,0.0009208103130755,0.6946897579997706,0.6469778644339947,0.6637229040027526,0.707395498392283,0.5809217577706324,0.5980707395498392,3
671,79,1.6065573770491803,4.631892697466468,8.49367088607595,1.965722801788376,18,0.4560357675111773,1.965722801788376,1.6646795827123697,1.38301043219076,0.7943368107302533,0.3576751117734724,0.2444113263785395,0.1102831594634873,0.2190760059612518,0.0178837555886736,0.0,0.742798353909465,0.7205761316872428,0.7271604938271605,0.7974900171135196,0.6360524814603536,0.6731317741015402,3
138,17,1.4375,4.615942028985507,8.117647058823529,1.920289855072464,4,0.3768115942028985,1.920289855072464,1.6884057971014492,1.4710144927536233,0.9130434782608696,0.3478260869565217,0.2971014492753623,0.0652173913043478,0.1304347826086956,0.0144927536231884,0.0,0.7741935483870968,0.7036290322580645,0.7278225806451613,0.8140845070422535,0.6338028169014085,0.6535211267605634,3
328,30,1.5806451612903225,5.091463414634147,10.933333333333334,2.179878048780488,20,0.4054878048780488,2.179878048780488,1.8689024390243905,1.75,0.9847560975609756,0.3384146341463415,0.2774390243902439,0.125,0.1615853658536585,0.0182926829268292,0.0,0.7992537313432836,0.7514925373134328,0.7723880597014925,0.7960396039603961,0.6871287128712872,0.7277227722772277,3
490,41,1.6857142857142855,4.785714285714286,11.951219512195122,2.006122448979592,14,0.4755102040816326,2.006122448979592,1.6857142857142855,1.546938775510204,0.8448979591836735,0.3673469387755102,0.2326530612244897,0.1387755102040816,0.236734693877551,0.0346938775510204,0.0020408163265306,0.7766937669376693,0.7441734417344174,0.7430894308943089,0.8112927191679049,0.6560178306092125,0.7013372956909361,3
340,62,1.588235294117647,4.888235294117648,5.483870967741935,2.070588235294118,9,0.4294117647058823,2.070588235294118,1.8058823529411765,1.5735294117647058,0.8676470588235294,0.3676470588235294,0.2735294117647059,0.0823529411764705,0.1617647058823529,0.0205882352941176,0.0,0.7462006079027356,0.7142857142857143,0.7127659574468085,0.8278350515463917,0.6948453608247422,0.6762886597938145,3
119,17,1.5384615384615383,4.61344537815126,7.0,1.9327731092436973,1,0.4369747899159664,1.9327731092436973,1.630252100840336,1.4705882352941178,0.8907563025210085,0.361344537815126,0.2521008403361344,0.1680672268907563,0.2352941176470588,0.0336134453781512,0.0,0.7738927738927739,0.7505827505827506,0.7226107226107226,0.8284789644012945,0.6116504854368932,0.6601941747572816,3
1180,87,1.8888888888888888,5.115254237288136,13.563218390804598,2.145762711864407,53,0.473728813559322,2.145762711864407,1.8584745762711865,1.6805084745762713,0.9483050847457628,0.3940677966101695,0.3,0.1576271186440678,0.2186440677966101,0.0406779661016949,0.0,0.7825634623387432,0.7349146899708697,0.7332501040366209,0.7970489977728286,0.6252783964365256,0.6739977728285078,3
457,65,1.4146341463414631,4.306345733041575,7.030769230769231,1.811816192560175,9,0.3741794310722101,1.811816192560175,1.5098468271334793,1.3566739606126914,0.7789934354485777,0.2910284463894967,0.2319474835886214,0.111597374179431,0.1947483588621444,0.0284463894967177,0.0,0.795439302481556,0.7357478202548625,0.7370892018779343,0.8614232209737828,0.6357677902621723,0.7050561797752809,3
471,50,1.4634146341463414,4.779193205944798,9.42,2.0042462845010616,14,0.445859872611465,2.0042462845010616,1.813163481953291,1.475583864118896,0.9363057324840764,0.375796178343949,0.2781316348195329,0.1464968152866242,0.2229299363057325,0.0382165605095541,0.0021231422505307,0.7518330513254371,0.7021996615905245,0.7089678510998308,0.7854938271604939,0.6358024691358025,0.6604938271604939,3
346,50,1.7142857142857142,4.826589595375722,6.92,2.057803468208093,8,0.4190751445086705,2.057803468208093,1.8583815028901731,1.5057803468208093,0.8959537572254336,0.3901734104046243,0.2832369942196532,0.1329479768786127,0.1878612716763005,0.0722543352601156,0.0086705202312138,0.7288651942117289,0.7037319116527038,0.6862147753236862,0.7526096033402923,0.6325678496868476,0.6388308977035491,3
578,68,1.5423728813559323,4.927335640138408,8.5,2.01038062283737,18,0.4826989619377163,2.01038062283737,1.7698961937716262,1.5795847750865053,0.9394463667820068,0.4152249134948096,0.2698961937716263,0.1833910034602076,0.2301038062283737,0.0449826989619377,0.0017301038062283,0.7625611382836817,0.7318808359270788,0.730102267674522,0.8350453172205438,0.6392749244712991,0.6737160120845922,3
458,55,1.7272727272727273,4.707423580786026,8.327272727272728,1.9017467248908295,8,0.5589519650655022,1.9017467248908295,1.6048034934497817,1.4344978165938864,0.8362445414847162,0.4213973799126637,0.2991266375545851,0.1768558951965065,0.2685589519650655,0.0786026200873362,0.019650655021834,0.7180094786729858,0.6848341232227488,0.691350710900474,0.7559377559377559,0.6052416052416052,0.6273546273546273,3
449,28,1.4444444444444444,4.830734966592428,16.035714285714285,1.979955456570156,10,0.5189309576837416,1.979955456570156,1.7193763919821827,1.5011135857461024,0.9131403118040088,0.4276169265033407,0.311804008908686,0.1759465478841871,0.2538975501113585,0.0690423162583518,0.0,0.7904649793996469,0.7580929958799294,0.7639788110653325,0.814874696847211,0.677445432497979,0.6863379143088116,3
482,43,1.3953488372093024,5.026970954356846,11.209302325581396,2.107883817427386,20,0.479253112033195,2.107883817427386,1.817427385892116,1.6182572614107884,0.9439834024896264,0.3755186721991701,0.2925311203319502,0.1618257261410788,0.2323651452282157,0.0248962655601659,0.0,0.7585492227979275,0.7227979274611399,0.7212435233160622,0.7877522616562282,0.6409185803757829,0.6527487821851079,3
132,11,0.0,5.0227272727272725,12.0,2.075757575757576,4,0.4924242424242424,2.075757575757576,1.7803030303030305,1.6666666666666667,0.9848484848484848,0.4166666666666667,0.3409090909090909,0.1439393939393939,0.1742424242424242,0.0227272727272727,0.0,0.7886792452830189,0.7509433962264151,0.7716981132075472,0.8261964735516373,0.6649874055415617,0.7304785894206549,3
15,2,1.6666666666666667,6.333333333333333,7.5,2.6666666666666665,3,0.7333333333333333,2.6666666666666665,2.066666666666667,1.8666666666666667,0.9333333333333332,0.4666666666666667,0.3333333333333333,0.2,0.5333333333333333,0.0,0.0,0.6081081081081081,0.5945945945945946,0.6081081081081081,0.7678571428571429,0.5714285714285714,0.5357142857142857,3
562,64,1.4038461538461535,4.711743772241993,8.78125,1.99288256227758,13,0.501779359430605,1.99288256227758,1.7206405693950175,1.402135231316726,0.8487544483985765,0.4145907473309608,0.2864768683274021,0.1316725978647686,0.2918149466192171,0.0533807829181494,0.0017793594306049,0.7377285851780558,0.6891241578440809,0.7199230028873917,0.7945659377070908,0.6189529489728297,0.6713055003313453,3
583,66,1.64,4.636363636363637,8.833333333333334,1.987993138936535,9,0.411663807890223,1.987993138936535,1.7238421955403087,1.444253859348199,0.8147512864493996,0.3602058319039451,0.2830188679245283,0.0994854202401372,0.1732418524871355,0.0205831903945111,0.0017152658662092,0.8084200567644276,0.7658467360454115,0.7701040681173131,0.8368283093053736,0.709043250327654,0.7463958060288336,3
121,12,1.3333333333333333,5.512396694214876,10.083333333333334,2.231404958677686,10,0.6115702479338843,2.231404958677686,1.950413223140496,1.793388429752066,1.0826446280991735,0.5041322314049587,0.3801652892561983,0.2148760330578512,0.3471074380165289,0.0578512396694214,0.0082644628099173,0.7301293900184843,0.6876155268022182,0.6691312384473198,0.7469879518072289,0.6144578313253012,0.6240963855421687,3
103,12,1.1666666666666667,4.689320388349515,8.583333333333334,1.951456310679612,2,0.4271844660194174,1.951456310679612,1.7378640776699028,1.4757281553398058,0.8932038834951457,0.3203883495145631,0.233009708737864,0.1359223300970873,0.2135922330097087,0.029126213592233,0.0097087378640776,0.7883597883597884,0.746031746031746,0.7301587301587301,0.7985347985347986,0.6446886446886447,0.6556776556776557,3
998,133,1.5901639344262295,5.125250501002004,7.503759398496241,2.156312625250501,26,0.4729458917835671,2.156312625250501,1.9218436873747493,1.6452905811623246,0.968937875751503,0.4258517034068136,0.3266533066132264,0.1523046092184369,0.2074148296593186,0.0440881763527054,0.001002004008016,0.768892149669846,0.7197358767424799,0.735632183908046,0.7915851272015656,0.6382909328114807,0.6846053489889107,3
833,77,1.5555555555555556,4.837935174069628,10.818181818181818,2.034813925570228,30,0.4477791116446579,2.034813925570228,1.8115246098439373,1.4981992797118848,0.8667466986794717,0.3817527010804322,0.3013205282112845,0.1260504201680672,0.2064825930372149,0.034813925570228,0.0012004801920768,0.7924646781789639,0.7598116169544741,0.7745682888540032,0.8127931769722815,0.6946695095948827,0.6950959488272921,3
241,27,1.809523809523809,5.170124481327801,8.925925925925926,2.240663900414938,12,0.4107883817427386,2.240663900414938,1.904564315352697,1.7634854771784232,0.995850622406639,0.3568464730290456,0.2614107883817427,0.1327800829875518,0.2033195020746888,0.0124481327800829,0.0,0.7761044176706827,0.7469879518072289,0.7439759036144579,0.7627345844504021,0.596514745308311,0.6595174262734584,3
136,7,2.25,5.154411764705882,19.428571428571427,2.0808823529411766,8,0.7279411764705882,2.0808823529411766,1.661764705882353,1.6323529411764706,0.875,0.5294117647058824,0.3602941176470588,0.2720588235294117,0.4411764705882353,0.0588235294117647,0.0,0.6725978647686833,0.6423487544483986,0.6565836298932385,0.6682242990654206,0.5397196261682243,0.5700934579439252,3
904,82,1.391304347826087,4.734513274336283,11.024390243902438,1.9601769911504423,20,0.4723451327433628,1.9601769911504423,1.717920353982301,1.467920353982301,0.8495575221238938,0.3584070796460177,0.2754424778761062,0.1393805309734513,0.2245575221238938,0.0486725663716814,0.0022123893805309,0.7337507453786524,0.7271914132379249,0.710494931425164,0.751131221719457,0.6248457424928013,0.6289592760180995,3
327,31,2.1904761904761907,4.675840978593272,10.548387096774194,2.018348623853211,10,0.4067278287461773,2.018348623853211,1.7186544342507646,1.397553516819572,0.8134556574923547,0.3516819571865443,0.2568807339449541,0.1253822629969418,0.2079510703363914,0.0152905198776758,0.0,0.6875522138680034,0.6658312447786132,0.6524644945697577,0.7136258660508084,0.5565819861431871,0.5773672055427251,3
227,21,1.55,4.916299559471366,10.80952380952381,2.004405286343612,6,0.4757709251101321,2.004405286343612,1.7709251101321586,1.5462555066079295,0.9251101321585904,0.4096916299559471,0.3083700440528634,0.1894273127753304,0.211453744493392,0.0308370044052863,0.0,0.7794117647058824,0.7205882352941176,0.75,0.8190184049079755,0.656441717791411,0.6763803680981595,3
802,94,1.569767441860465,5.029925187032419,8.53191489361702,2.1408977556109727,24,0.4164588528678304,2.1408977556109727,1.8653366583541149,1.6047381546134662,0.9850374064837906,0.3653366583541147,0.300498753117207,0.1309226932668329,0.1783042394014962,0.0448877805486284,0.0,0.7990059024541784,0.7468157812985399,0.7524075799937869,0.7979209979209979,0.649064449064449,0.6665280665280665,3
576,53,1.52,4.996527777777778,10.867924528301886,2.046875,21,0.5329861111111112,2.046875,1.7621527777777777,1.6284722222222223,0.9375,0.4253472222222222,0.3211805555555556,0.1423611111111111,0.2204861111111111,0.0295138888888888,0.0,0.7880244755244755,0.7679195804195804,0.7578671328671329,0.8015312131919906,0.6696113074204947,0.7025912838633687,3
132,6,0.0,4.71969696969697,22.0,2.015151515151515,2,0.4090909090909091,2.015151515151515,1.7424242424242424,1.5227272727272727,0.8636363636363636,0.3560606060606061,0.2803030303030303,0.1439393939393939,0.1893939393939394,0.0075757575757575,0.0,0.8044806517311609,0.7169042769857433,0.7617107942973523,0.8016528925619835,0.628099173553719,0.6749311294765841,3
196,22,1.3888888888888888,4.775510204081633,8.909090909090908,1.9285714285714288,7,0.5459183673469388,1.9285714285714288,1.653061224489796,1.520408163265306,0.9132653061224488,0.4285714285714285,0.3010204081632653,0.1581632653061224,0.2244897959183673,0.0357142857142857,0.0,0.7636612021857924,0.7349726775956285,0.7404371584699454,0.8192090395480226,0.6666666666666666,0.6685499058380414,3
101,8,1.7777777777777777,4.96039603960396,12.625,1.99009900990099,0,0.5742574257425742,1.99009900990099,1.693069306930693,1.613861386138614,0.8712871287128713,0.4554455445544554,0.3663366336633663,0.0891089108910891,0.2574257425742574,0.0198019801980198,0.0,0.76,0.7225,0.7525,0.7658862876254181,0.6053511705685619,0.6622073578595318,3
94,9,1.3333333333333333,5.361702127659575,10.444444444444445,2.3404255319148937,7,0.4042553191489361,2.3404255319148937,1.9574468085106385,1.946808510638298,1.0638297872340423,0.3829787234042553,0.2872340425531915,0.1489361702127659,0.202127659574468,0.0212765957446808,0.0,0.8444444444444444,0.7728395061728395,0.7802469135802469,0.827922077922078,0.685064935064935,0.6948051948051948,3
550,60,1.4339622641509433,4.510909090909091,9.166666666666666,1.8745454545454543,11,0.46,1.8745454545454543,1.6472727272727272,1.3309090909090908,0.7854545454545454,0.3345454545454545,0.249090909090909,0.1327272727272727,0.2745454545454545,0.0709090909090909,0.0,0.7436297451898076,0.7165886635465418,0.7119084763390535,0.7240117130307467,0.5797950219619327,0.6105417276720352,3
126,10,2.0,4.865079365079365,12.6,2.023809523809524,4,0.4444444444444444,2.023809523809524,1.7698412698412698,1.531746031746032,0.984126984126984,0.4047619047619047,0.3333333333333333,0.1666666666666666,0.1984126984126984,0.0079365079365079,0.0,0.7603305785123967,0.7169421487603306,0.7169421487603306,0.7943661971830986,0.6394366197183099,0.6197183098591549,3
469,40,1.911764705882353,4.552238805970149,11.725,1.914712153518124,13,0.4285714285714285,1.914712153518124,1.5692963752665243,1.492537313432836,0.8422174840085288,0.3304904051172708,0.2452025586353944,0.1236673773987206,0.2132196162046908,0.0170575692963752,0.0,0.7791116446578632,0.7472989195678271,0.7352941176470589,0.8262322472848789,0.6558061821219716,0.6858813700918964,3
531,70,1.6346153846153846,4.446327683615819,7.585714285714285,1.9246704331450093,3,0.352165725047081,1.9246704331450093,1.6836158192090396,1.2900188323917137,0.8192090395480226,0.3182674199623352,0.231638418079096,0.1054613935969868,0.1487758945386064,0.0150659133709981,0.0,0.6695890410958905,0.6378082191780822,0.6410958904109589,0.6873545384018619,0.556245151280062,0.5748642358417377,3
532,42,2.142857142857143,4.9605263157894735,12.666666666666666,2.088345864661654,21,0.4661654135338345,2.088345864661654,1.7763157894736843,1.650375939849624,0.9097744360902256,0.3533834586466165,0.2368421052631578,0.1240601503759398,0.2142857142857142,0.0319548872180451,0.0093984962406015,0.7782026768642447,0.7361376673040153,0.7423518164435946,0.8245954692556634,0.6491909385113268,0.7119741100323624,3
101,8,1.25,5.247524752475248,12.625,2.207920792079208,5,0.5148514851485149,2.207920792079208,1.900990099009901,1.7623762376237624,1.0396039603960396,0.4554455445544554,0.3663366336633663,0.1485148514851485,0.2277227722772277,0.0198019801980198,0.0,0.8094117647058824,0.7364705882352941,0.7835294117647059,0.81875,0.6625,0.70625,3
112,7,1.4285714285714286,5.098214285714286,16.0,2.1160714285714284,7,0.5357142857142857,2.1160714285714284,1.8035714285714288,1.625,0.9285714285714286,0.4196428571428571,0.2767857142857143,0.1517857142857142,0.2857142857142857,0.0446428571428571,0.0,0.6855895196506551,0.6703056768558951,0.6550218340611353,0.7191977077363897,0.5787965616045845,0.5644699140401146,3
127,11,1.181818181818182,4.850393700787402,11.545454545454543,2.094488188976378,6,0.3779527559055118,2.094488188976378,1.8661417322834648,1.5433070866141732,0.905511811023622,0.2913385826771653,0.2283464566929134,0.1259842519685039,0.1574803149606299,0.0157480314960629,0.0,0.8426501035196687,0.7743271221532091,0.8157349896480331,0.8657142857142858,0.6685714285714286,0.7228571428571429,3
283,20,1.4705882352941178,5.035335689045937,14.15,2.120141342756184,21,0.519434628975265,2.120141342756184,1.7915194346289751,1.6183745583038869,0.9151943462897526,0.3710247349823322,0.2791519434628975,0.1484098939929328,0.2614840989399293,0.0212014134275618,0.0,0.7164179104477612,0.6821773485513608,0.6962247585601404,0.7166276346604216,0.6112412177985949,0.6124121779859485,3
1946,223,1.4739884393063585,4.663412127440904,8.72645739910314,2.014388489208633,57,0.3848920863309352,2.014388489208633,1.7040082219938335,1.4938335046248716,0.829393627954779,0.328365878725591,0.2646454265159301,0.0781089414182939,0.1428571428571428,0.013874614594039,0.001027749229188,0.8061829474872954,0.7502823263692829,0.7751270468661773,0.8439827518620149,0.6911015288122305,0.7397099176793415,3
222,19,1.3333333333333333,4.855855855855856,11.68421052631579,1.9684684684684688,1,0.5630630630630631,1.9684684684684688,1.7477477477477477,1.4594594594594594,0.90990990990991,0.4414414414414414,0.3063063063063063,0.2387387387387387,0.3333333333333333,0.054054054054054,0.0,0.7324766355140186,0.6869158878504673,0.6904205607476636,0.7287066246056783,0.61198738170347,0.6324921135646687,3
298,32,1.826086956521739,4.909395973154362,9.3125,2.077181208053691,6,0.4429530201342282,2.077181208053691,1.7986577181208054,1.604026845637584,0.9362416107382552,0.4026845637583892,0.3120805369127516,0.1946308724832214,0.2583892617449664,0.0201342281879194,0.0033557046979865,0.7875108412836079,0.7432784041630529,0.7588898525585429,0.7544483985765125,0.6215895610913404,0.6631079478054567,3
727,103,1.423913043478261,4.636863823933975,7.058252427184466,1.9573590096286104,16,0.4429160935350756,1.9573590096286104,1.6863823933975242,1.422283356258597,0.8335625859697386,0.3768913342503439,0.2847317744154057,0.1265474552957359,0.2269601100412654,0.0178817056396148,0.0027510316368638,0.76579644343549,0.7275822928490352,0.7203934922436626,0.8078328981723237,0.6511749347258485,0.6746736292428198,3
431,43,1.3571428571428572,4.7146171693735495,10.023255813953488,1.9443155452436196,8,0.4802784222737819,1.9443155452436196,1.7192575406032482,1.4361948955916473,0.8491879350348028,0.3503480278422274,0.2529002320185615,0.1090487238979118,0.2343387470997679,0.0324825986078886,0.0046403712296983,0.7801374141161774,0.7376639600249844,0.7289194253591506,0.8122866894197952,0.6561433447098977,0.6928327645051194,3
88,7,1.8571428571428568,5.204545454545454,12.571428571428571,2.1931818181818183,5,0.5568181818181818,2.1931818181818183,1.9090909090909087,1.6477272727272727,1.0,0.4772727272727273,0.2954545454545454,0.2272727272727272,0.3409090909090909,0.0795454545454545,0.0,0.7520435967302452,0.7166212534059946,0.7275204359673024,0.8043478260869565,0.6702898550724637,0.6594202898550725,3
393,47,1.2857142857142858,4.811704834605598,8.361702127659575,1.9923664122137408,6,0.4249363867684478,1.9923664122137408,1.7455470737913483,1.549618320610687,0.8880407124681934,0.3638676844783715,0.2620865139949109,0.1195928753180661,0.188295165394402,0.0330788804071246,0.0,0.7741286863270778,0.7305630026809652,0.7312332439678284,0.827996340347667,0.6752058554437328,0.7090576395242452,3
2952,349,1.7628458498023716,4.652777777777778,8.458452722063038,1.98340108401084,79,0.393970189701897,1.98340108401084,1.728658536585366,1.4495257452574526,0.8648373983739838,0.3333333333333333,0.2615176151761517,0.1043360433604336,0.1886856368563685,0.0220189701897018,0.0006775067750677,0.7455952269972965,0.7129672788291228,0.7138062832105901,0.775486531769558,0.6431241139322078,0.685784250547751,3
182,8,1.75,5.021978021978022,22.75,2.0494505494505493,6,0.5934065934065934,2.0494505494505493,1.7857142857142858,1.5604395604395604,0.8956043956043956,0.4285714285714285,0.2967032967032967,0.1758241758241758,0.3241758241758242,0.0494505494505494,0.0,0.7232876712328767,0.673972602739726,0.7095890410958904,0.6703296703296703,0.5732600732600732,0.6117216117216118,3
548,78,1.4166666666666667,4.843065693430657,7.0256410256410255,1.9762773722627736,9,0.5346715328467153,1.9762773722627736,1.5967153284671534,1.6167883211678833,0.8941605839416058,0.406934306569343,0.2974452554744525,0.1386861313868613,0.22992700729927,0.0291970802919708,0.0018248175182481,0.7702188392007612,0.7397716460513797,0.7454804947668887,0.8164842240824212,0.6542176432710882,0.6761107533805538,3
507,56,1.4680851063829787,5.005917159763314,9.053571428571429,2.076923076923077,13,0.4911242603550296,2.076923076923077,1.8205128205128205,1.6232741617357005,0.960552268244576,0.4142011834319526,0.301775147928994,0.1814595660749507,0.26232741617357,0.059171597633136,0.0039447731755424,0.7371541501976284,0.7065217391304348,0.6882411067193676,0.7878387309980172,0.5981493721083939,0.6834104428288169,3
161,16,1.5,4.726708074534161,10.0625,2.0434782608695654,3,0.391304347826087,2.0434782608695654,1.7577639751552796,1.5279503105590062,0.8695652173913043,0.3354037267080745,0.2484472049689441,0.124223602484472,0.1801242236024844,0.0248447204968944,0.0062111801242236,0.7788944723618091,0.7520938023450586,0.7587939698492462,0.8013856812933026,0.6558891454965358,0.7228637413394919,3
605,46,2.0,4.819834710743802,13.152173913043478,2.021487603305785,20,0.4495867768595041,2.021487603305785,1.7421487603305783,1.5454545454545454,0.8578512396694215,0.3388429752066115,0.2396694214876033,0.1057851239669421,0.2181818181818181,0.0181818181818181,0.0,0.7710686359687229,0.7298001737619462,0.7502172024326672,0.8401420959147424,0.664890467732386,0.6885731201894613,3
390,41,1.4210526315789471,5.0256410256410255,9.51219512195122,2.056410256410256,10,0.4974358974358974,2.056410256410256,1.7820512820512822,1.6384615384615384,0.9897435897435898,0.4025641025641026,0.2974358974358974,0.1641025641025641,0.2205128205128205,0.0435897435897435,0.0,0.786215698787492,0.7440970006381621,0.7421825143586471,0.8606627017841971,0.6788445199660152,0.7187765505522515,3
143,4,3.5,5.20979020979021,35.75,2.055944055944056,2,0.7412587412587412,2.055944055944056,1.7762237762237765,1.5874125874125875,0.958041958041958,0.6223776223776224,0.4405594405594406,0.2517482517482518,0.3706293706293706,0.0909090909090909,0.0069930069930069,0.7111853088480802,0.676126878130217,0.671118530884808,0.7019867549668874,0.5540838852097131,0.5717439293598234,3
101,10,1.1,4.891089108910891,10.1,2.089108910891089,5,0.4158415841584158,2.089108910891089,1.8712871287128716,1.534653465346535,0.900990099009901,0.3168316831683168,0.2376237623762376,0.1188118811881188,0.2079207920792079,0.0198019801980198,0.0099009900990099,0.8056265984654731,0.7544757033248082,0.782608695652174,0.8229166666666666,0.6423611111111112,0.6423611111111112,3
118,11,1.0909090909090908,5.135593220338983,10.727272727272728,2.135593220338983,5,0.5677966101694916,2.135593220338983,1.8305084745762712,1.6016949152542372,0.9661016949152542,0.4915254237288136,0.3983050847457627,0.135593220338983,0.2627118644067797,0.0338983050847457,0.0,0.7010309278350515,0.6453608247422681,0.6783505154639176,0.7232876712328767,0.5835616438356165,0.6410958904109589,3
456,76,1.6111111111111112,4.927631578947368,6.0,2.048245614035088,14,0.4890350877192982,2.048245614035088,1.7543859649122806,1.5767543859649122,0.9013157894736842,0.4057017543859649,0.3245614035087719,0.1425438596491228,0.219298245614035,0.0328947368421052,0.0021929824561403,0.7481607243916242,0.7209960384833051,0.7260894170911149,0.7862122385747483,0.6398140975987606,0.6460108443067389,3
556,64,1.4,5.003597122302159,8.6875,2.0449640287769784,15,0.4928057553956834,2.0449640287769784,1.8201438848920863,1.6223021582733812,0.9658273381294964,0.4172661870503597,0.3327338129496403,0.1420863309352518,0.2050359712230215,0.0413669064748201,0.0,0.828649138712602,0.7688123300090662,0.7810516772438804,0.852760736196319,0.6969325153374233,0.7411042944785277,3
212,19,0.0,5.14622641509434,11.157894736842104,2.0235849056603774,10,0.6509433962264151,2.0235849056603774,1.731132075471698,1.6037735849056605,0.9716981132075472,0.5660377358490566,0.419811320754717,0.240566037735849,0.3066037735849056,0.1179245283018868,0.0047169811320754,0.7659817351598174,0.747716894977169,0.7420091324200914,0.7488653555219364,0.642965204236006,0.6399394856278366,3
98,8,2.111111111111111,4.561224489795919,12.25,1.969387755102041,4,0.4387755102040816,1.969387755102041,1.6224489795918366,1.3877551020408163,0.7755102040816326,0.3163265306122449,0.2448979591836734,0.1428571428571428,0.1836734693877551,0.010204081632653,0.0,0.7485549132947977,0.7109826589595376,0.7456647398843931,0.8,0.6244897959183674,0.7020408163265306,3
438,80,1.4307692307692308,4.657534246575342,5.475,1.9246575342465757,8,0.45662100456621,1.9246575342465757,1.7123287671232876,1.3789954337899544,0.8333333333333334,0.3447488584474886,0.2191780821917808,0.136986301369863,0.2374429223744292,0.0753424657534246,0.0,0.7446808510638298,0.700250312891114,0.7165206508135169,0.8056749785038693,0.6448839208942391,0.6560619088564058,3
473,53,1.5,4.970401691331924,8.924528301886792,2.06553911205074,15,0.4418604651162791,2.06553911205074,1.8350951374207187,1.6194503171247356,0.9577167019027484,0.40169133192389,0.3044397463002114,0.1479915433403805,0.1987315010570824,0.040169133192389,0.0021141649048625,0.7909090909090909,0.7374331550802139,0.7502673796791444,0.8178545716342692,0.6501079913606912,0.6947444204463643,3
263,26,1.4736842105263157,4.904942965779468,10.115384615384617,2.026615969581749,6,0.4752851711026616,2.026615969581749,1.7642585551330798,1.5779467680608366,0.9391634980988594,0.4182509505703422,0.3231939163498099,0.1254752851711026,0.2129277566539923,0.0342205323193916,0.0,0.7707317073170732,0.7160975609756097,0.7151219512195122,0.8052631578947368,0.6552631578947369,0.6789473684210526,3
453,51,1.2222222222222223,4.593818984547461,8.882352941176471,1.9403973509933772,4,0.4547461368653421,1.9403973509933772,1.6975717439293598,1.3995584988962473,0.8278145695364238,0.3333333333333333,0.249448123620309,0.1456953642384106,0.249448123620309,0.0309050772626931,0.0,0.7152521525215252,0.6863468634686347,0.6734317343173432,0.735269000853971,0.6131511528608027,0.6003415883859948,3
277,30,2.227272727272727,4.675090252707581,9.233333333333333,1.895306859205776,6,0.4945848375451263,1.895306859205776,1.6209386281588447,1.3537906137184117,0.8086642599277978,0.4223826714801444,0.3249097472924188,0.1010830324909747,0.1768953068592057,0.03971119133574,0.0072202166064981,0.7256637168141593,0.6941986234021632,0.6951819075712881,0.7564276048714479,0.6021650879566982,0.6400541271989174,3
531,64,1.9111111111111112,4.83804143126177,8.296875,2.056497175141243,20,0.4274952919020716,2.056497175141243,1.7306967984934087,1.6082862523540489,0.8888888888888888,0.3446327683615819,0.2617702448210923,0.1224105461393597,0.192090395480226,0.0282485875706214,0.0,0.7664197530864197,0.7209876543209877,0.7244444444444444,0.7648247978436657,0.6226415094339622,0.6482479784366577,3
674,56,1.3541666666666667,5.259643916913946,12.035714285714286,2.148367952522255,22,0.5534124629080118,2.148367952522255,1.9183976261127595,1.7373887240356083,1.0148367952522257,0.4495548961424332,0.3323442136498516,0.172106824925816,0.2433234421364985,0.0326409495548961,0.0,0.7886093640810622,0.7473794549266247,0.7480782669461915,0.827902707664066,0.6581000458926113,0.7058283616337769,3
1072,125,1.28125,4.748134328358209,8.576,1.9944029850746268,29,0.4468283582089552,1.9944029850746268,1.787313432835821,1.4598880597014925,0.8703358208955224,0.3871268656716418,0.3087686567164179,0.1110074626865671,0.2238805970149253,0.0289179104477611,0.0,0.7531819316196656,0.6975293236835538,0.7262290990766159,0.7725718194254446,0.6183310533515732,0.6651846785225718,3
121,11,1.5454545454545454,5.016528925619835,11.0,2.115702479338843,7,0.3801652892561983,2.115702479338843,1.9173553719008265,1.677685950413223,0.9586776859504132,0.3057851239669421,0.256198347107438,0.0826446280991735,0.1570247933884297,0.0165289256198347,0.0,0.8074534161490683,0.7453416149068323,0.7929606625258799,0.8523676880222841,0.6573816155988857,0.6935933147632312,3
207,26,1.3636363636363635,4.714975845410628,7.961538461538462,1.9420289855072463,7,0.4685990338164251,1.9420289855072463,1.7342995169082125,1.4734299516908214,0.9227053140096618,0.3623188405797101,0.2801932367149758,0.1642512077294686,0.2705314009661835,0.0241545893719806,0.0,0.7877604166666666,0.7526041666666666,0.7760416666666666,0.8375,0.6839285714285714,0.7053571428571429,3
371,48,1.125,4.867924528301887,7.729166666666667,2.059299191374663,15,0.4150943396226415,2.059299191374663,1.7816711590296497,1.582210242587601,0.8706199460916442,0.3153638814016172,0.2506738544474393,0.1159029649595687,0.1913746630727762,0.0053908355795148,0.0,0.7806587245970568,0.747021723896286,0.7386124737210932,0.8158396946564885,0.6593511450381679,0.6774809160305344,3
471,38,1.1891891891891893,4.698513800424628,12.394736842105264,1.9575371549893843,11,0.5456475583864119,1.9575371549893843,1.6093418259023355,1.4331210191082802,0.8067940552016986,0.4203821656050955,0.2462845010615711,0.167728237791932,0.2738853503184713,0.0700636942675159,0.0021231422505307,0.7375071797817346,0.7156806433084434,0.710511200459506,0.789598108747045,0.6524822695035462,0.6335697399527187,3
671,87,1.4142857142857144,5.050670640834575,7.712643678160919,2.150521609538003,18,0.368107302533532,2.150521609538003,1.9120715350223547,1.6870342771982116,0.9836065573770492,0.2861400894187779,0.2220566318926974,0.1132637853949329,0.1847988077496274,0.0178837555886736,0.0029806259314456,0.7901554404145078,0.7220577350111029,0.7475943745373798,0.8104218362282879,0.6153846153846154,0.6913151364764268,3
400,86,1.660377358490566,5.06,4.651162790697675,2.145,17,0.425,2.145,1.82,1.7075,1.0,0.3625,0.25,0.14,0.2275,0.015,0.005,0.7817730936143832,0.7464352138871667,0.7439553626782393,0.7938487115544473,0.6350789692435578,0.6965918536990856,3
150,20,1.3846153846153846,4.973333333333334,7.5,2.1266666666666665,6,0.3933333333333333,2.1266666666666665,1.913333333333333,1.58,0.9666666666666668,0.36,0.2533333333333333,0.1466666666666666,0.2266666666666666,0.04,0.0066666666666666,0.7070707070707071,0.6717171717171717,0.6666666666666666,0.7330316742081447,0.5610859728506787,0.5859728506787331,3
2075,172,1.432098765432099,4.691084337349397,12.063953488372093,1.976385542168675,49,0.4539759036144578,1.976385542168675,1.6983132530120482,1.445301204819277,0.824578313253012,0.340722891566265,0.2409638554216867,0.1156626506024096,0.2183132530120481,0.0342168674698795,0.0014457831325301,0.7410269845428347,0.707230809536285,0.7084097458737229,0.7915162454873647,0.6185920577617329,0.6521660649819495,3
495,55,1.346938775510204,4.907070707070707,9.0,2.014141414141414,11,0.5353535353535354,2.014141414141414,1.7353535353535354,1.5737373737373737,0.9313131313131312,0.4303030303030303,0.2929292929292929,0.1676767676767676,0.2242424242424242,0.0303030303030303,0.0,0.7571206628689798,0.7219057483169342,0.7265665458311755,0.8040446304044631,0.6415620641562064,0.6548117154811716,3
110,9,0.0,5.227272727272728,12.22222222222222,2.163636363636364,5,0.5454545454545454,2.163636363636364,1.9090909090909087,1.7181818181818185,1.0,0.4454545454545454,0.3363636363636363,0.109090909090909,0.2,0.0181818181818181,0.0,0.8168103448275862,0.7456896551724138,0.7887931034482759,0.8611898016997167,0.6458923512747875,0.7393767705382436,3
434,56,1.5,4.594470046082949,7.75,2.0023041474654377,11,0.3548387096774194,2.0023041474654377,1.695852534562212,1.456221198156682,0.8271889400921659,0.2788018433179723,0.2235023041474654,0.0875576036866359,0.1589861751152073,0.0092165898617511,0.0,0.7961538461538461,0.7608974358974359,0.7769230769230769,0.8490230905861457,0.6847246891651865,0.6865008880994672,3
