@RELATION readability_cebuano

@ATTRIBUTE word_count NUMERIC
@ATTRIBUTE sentence_count NUMERIC
@ATTRIBUTE phrase_count_per_sentence NUMERIC
@ATTRIBUTE average_word_len NUMERIC
@ATTRIBUTE average_sentence_len NUMERIC
@ATTRIBUTE average_syllable_count NUMERIC
@ATTRIBUTE polysyll_count NUMERIC
@ATTRIBUTE consonant_cluster_density NUMERIC
@ATTRIBUTE v_density NUMERIC
@ATTRIBUTE cv_density NUMERIC
@ATTRIBUTE vc_density NUMERIC
@ATTRIBUTE cvc_density NUMERIC
@ATTRIBUTE vcc_density NUMERIC
@ATTRIBUTE cvcc_density NUMERIC
@ATTRIBUTE ccvc_density NUMERIC
@ATTRIBUTE ccv_density NUMERIC
@ATTRIBUTE ccvcc_density NUMERIC
@ATTRIBUTE ccvccc_density NUMERIC
@ATTRIBUTE tagalog_bigram_sim NUMERIC
@ATTRIBUTE bikol_bigram_sim NUMERIC
@ATTRIBUTE cebuano_bigram_sim NUMERIC
@ATTRIBUTE tagalog_trigram_sim NUMERIC
@ATTRIBUTE bikol_trigram_sim NUMERIC
@ATTRIBUTE cebuano_trigam_sim NUMERIC
@ATTRIBUTE class {1,2,3}

@DATA
78,20,0.0,4.628205128205129,3.9,2.128205128205128,0,0.2692307692307692,2.128205128205128,1.8333333333333333,1.4102564102564104,0.8205128205128205,0.23076923076923078,0.1282051282051282,0.11538461538461539,0.1794871794871795,0.0,0.0,0.7591240875912408,0.7007299270072993,0.7262773722627737,0.7112299465240641,0.6203208556149733,0.8288770053475936,1
40,7,0.0,5.4,5.714285714285714,2.05,2,0.65,2.05,1.8,1.825,1.05,0.65,0.375,0.15,0.225,0.15,0.025,0.7443181818181818,0.7613636363636364,0.75,0.6911764705882353,0.7058823529411765,0.625,1
35,12,0.0,4.628571428571429,2.9166666666666665,2.1142857142857143,0,0.22857142857142856,2.1142857142857143,1.7714285714285714,1.542857142857143,0.9714285714285714,0.22857142857142856,0.2,0.11428571428571428,0.14285714285714285,0.0,0.0,0.6746031746031746,0.626984126984127,0.6428571428571429,0.6,0.5444444444444444,0.6888888888888889,1
66,12,0.0,4.803030303030303,5.5,2.121212121212121,1,0.2878787878787879,2.121212121212121,1.7727272727272727,1.6515151515151516,1.0,0.22727272727272727,0.22727272727272727,0.19696969696969696,0.24242424242424243,0.0,0.0,0.7250996015936255,0.6693227091633466,0.7051792828685259,0.7081081081081081,0.6216216216216216,0.7243243243243244,1
17,4,0.0,4.529411764705882,4.25,1.8823529411764706,0,0.4117647058823529,1.8823529411764706,1.588235294117647,1.4705882352941178,0.8235294117647058,0.4117647058823529,0.23529411764705882,0.17647058823529413,0.23529411764705882,0.0,0.0,0.6833333333333333,0.7,0.6833333333333333,0.4418604651162791,0.3023255813953488,0.6976744186046512,1
73,21,1.0476190476190477,5.178082191780822,3.4761904761904763,2.3013698630136985,3,0.3561643835616438,2.3013698630136985,1.9863013698630136,1.7397260273972603,0.9863013698630136,0.3150684931506849,0.2465753424657534,0.2054794520547945,0.3013698630136986,0.0136986301369863,0.0,0.7508305647840532,0.7508305647840532,0.8106312292358804,0.78125,0.6919642857142857,0.8928571428571429,1
16,5,0.0,4.625,3.2,2.0625,0,0.5,2.0625,1.6875,1.375,0.875,0.5,0.1875,0.25,0.4375,0.125,0.0,0.7543859649122807,0.6666666666666666,0.7719298245614035,0.6341463414634146,0.4634146341463415,0.6097560975609756,1
43,9,0.0,4.395348837209302,4.777777777777778,1.9534883720930232,0,0.3023255813953488,1.9534883720930232,1.5116279069767442,1.4186046511627908,0.7209302325581395,0.23255813953488372,0.18604651162790697,0.09302325581395349,0.13953488372093023,0.023255813953488372,0.0,0.6275862068965518,0.5724137931034483,0.6827586206896552,0.5882352941176471,0.5686274509803921,0.696078431372549,1
32,5,0.0,4.9375,6.4,2.15625,2,0.40625,2.15625,1.75,1.6875,0.9375,0.34375,0.25,0.0625,0.1875,0.03125,0.0,0.753968253968254,0.6587301587301587,0.7857142857142857,0.8191489361702128,0.6808510638297872,0.8723404255319149,1
67,12,0.0,4.268656716417911,5.583333333333333,1.9402985074626866,0,0.31343283582089554,1.9402985074626866,1.5522388059701493,1.2985074626865671,0.7611940298507462,0.23880597014925373,0.1791044776119403,0.16417910447761194,0.19402985074626866,0.014925373134328358,0.0,0.7123287671232876,0.6757990867579908,0.684931506849315,0.6644736842105263,0.6118421052631579,0.7105263157894737,1
104,23,1.1363636363636365,4.865384615384615,4.521739130434782,2.0673076923076925,2,0.4230769230769231,2.0673076923076925,1.7115384615384615,1.6442307692307692,0.9519230769230769,0.36538461538461536,0.25,0.17307692307692307,0.27884615384615385,0.0,0.0,0.7204030226700252,0.6826196473551638,0.7531486146095718,0.6666666666666666,0.6041666666666666,0.7465277777777778,1
62,12,0.0,4.709677419354839,5.166666666666667,2.129032258064516,1,0.3387096774193548,2.129032258064516,1.7258064516129032,1.5806451612903225,0.8225806451612904,0.3225806451612903,0.1774193548387097,0.0967741935483871,0.1935483870967742,0.04838709677419355,0.0,0.7543859649122807,0.6842105263157895,0.7543859649122807,0.6829268292682927,0.6402439024390244,0.6951219512195121,1
97,8,1.125,4.350515463917525,12.125,1.8556701030927836,0,0.44329896907216493,1.8556701030927836,1.6082474226804124,1.2371134020618557,0.8041237113402062,0.31958762886597936,0.21649484536082475,0.13402061855670103,0.27835051546391754,0.0,0.0,0.6419753086419753,0.5895061728395061,0.6666666666666666,0.584070796460177,0.48672566371681414,0.6238938053097345,1
80,9,0.0,4.8875,8.88888888888889,2.075,4,0.5125,2.075,1.8,1.4,0.85,0.35,0.2875,0.2375,0.45,0.0375,0.0,0.6461038961038961,0.6396103896103896,0.7077922077922078,0.6327433628318584,0.584070796460177,0.7212389380530974,1
33,8,0.0,4.878787878787879,4.125,1.9393939393939394,0,0.5151515151515151,1.9393939393939394,1.5757575757575757,1.7575757575757576,0.9696969696969697,0.42424242424242425,0.18181818181818182,0.15151515151515152,0.24242424242424243,0.0,0.0,0.6299212598425197,0.6299212598425197,0.6377952755905512,0.6451612903225806,0.6451612903225806,0.6666666666666666,1
18,5,0.0,4.277777777777778,3.6,2.0,0,0.2777777777777778,2.0,1.7777777777777777,1.1666666666666667,0.7777777777777778,0.2777777777777778,0.1111111111111111,0.1111111111111111,0.2222222222222222,0.0,0.0,0.7457627118644068,0.5932203389830508,0.7457627118644068,0.5365853658536586,0.4878048780487805,0.6829268292682927,1
18,6,0.0,4.944444444444445,3.0,2.3333333333333335,0,0.3333333333333333,2.3333333333333335,1.8888888888888888,1.5,0.8333333333333334,0.3333333333333333,0.1111111111111111,0.1111111111111111,0.3333333333333333,0.1111111111111111,0.05555555555555555,0.7464788732394366,0.6619718309859155,0.7464788732394366,0.6415094339622641,0.5283018867924528,0.7735849056603774,1
46,9,1.2222222222222223,5.239130434782608,5.111111111111111,2.152173913043478,2,0.45652173913043476,2.152173913043478,2.0,1.6304347826086956,1.0434782608695652,0.41304347826086957,0.32608695652173914,0.1956521739130435,0.2391304347826087,0.06521739130434782,0.06521739130434782,0.7098445595854922,0.6787564766839378,0.7357512953367875,0.6027397260273972,0.5342465753424658,0.6712328767123288,1
53,7,1.2857142857142858,4.3584905660377355,7.571428571428571,2.0,0,0.3584905660377358,2.0,1.528301886792453,1.2641509433962264,0.6226415094339622,0.24528301886792453,0.11320754716981132,0.07547169811320754,0.18867924528301888,0.0,0.0,0.7640449438202247,0.6910112359550562,0.7752808988764045,0.648,0.544,0.64,1
39,7,0.0,4.205128205128205,5.571428571428571,1.8974358974358974,0,0.2564102564102564,1.8974358974358974,1.6923076923076923,1.2564102564102564,0.8461538461538461,0.23076923076923078,0.15384615384615385,0.10256410256410256,0.15384615384615385,0.0,0.0,0.784,0.696,0.8,0.7209302325581395,0.6046511627906976,0.7906976744186046,1
23,6,0.0,3.391304347826087,3.8333333333333335,1.608695652173913,0,0.0,1.608695652173913,1.3043478260869565,1.0,0.6086956521739131,0.0,0.0,0.0,0.0,0.0,0.0,0.5925925925925926,0.5370370370370371,0.6111111111111112,0.6333333333333333,0.5,0.4666666666666667,1
21,5,1.4,4.0,4.2,1.6666666666666667,0,0.3333333333333333,1.6666666666666667,1.4285714285714286,1.1904761904761905,0.7142857142857143,0.19047619047619047,0.19047619047619047,0.14285714285714285,0.3333333333333333,0.0,0.0,0.6666666666666666,0.6825396825396826,0.7301587301587301,0.6666666666666666,0.6666666666666666,0.6904761904761905,1
46,9,0.0,4.021739130434782,5.111111111111111,1.891304347826087,0,0.1956521739130435,1.891304347826087,1.673913043478261,1.0217391304347827,0.6304347826086957,0.17391304347826086,0.08695652173913043,0.043478260869565216,0.10869565217391304,0.0,0.0,0.8088235294117647,0.75,0.8014705882352942,0.6966292134831461,0.5280898876404494,0.7078651685393258,1
21,6,0.0,4.428571428571429,3.5,2.0,0,0.38095238095238093,2.0,1.5714285714285714,1.4285714285714286,0.8095238095238095,0.38095238095238093,0.09523809523809523,0.09523809523809523,0.23809523809523808,0.047619047619047616,0.0,0.7638888888888888,0.7361111111111112,0.7638888888888888,0.7647058823529411,0.6274509803921569,0.7058823529411765,1
17,4,0.0,3.764705882352941,4.25,1.8235294117647058,0,0.17647058823529413,1.8235294117647058,1.4705882352941178,1.1176470588235294,0.6470588235294118,0.17647058823529413,0.058823529411764705,0.058823529411764705,0.11764705882352941,0.0,0.0,0.8723404255319149,0.8085106382978723,0.9148936170212766,0.9,0.6666666666666666,0.9,1
67,17,1.0555555555555556,5.402985074626866,3.9411764705882355,2.2388059701492535,0,0.5373134328358209,2.2388059701492535,2.044776119402985,1.6865671641791045,1.1044776119402986,0.43283582089552236,0.34328358208955223,0.29850746268656714,0.4626865671641791,0.04477611940298507,0.0,0.658703071672355,0.6143344709897611,0.6621160409556314,0.6294642857142857,0.5669642857142857,0.6428571428571429,1
43,10,0.0,4.674418604651163,4.3,2.046511627906977,0,0.46511627906976744,2.046511627906977,1.6744186046511629,1.4186046511627908,0.813953488372093,0.32558139534883723,0.2558139534883721,0.11627906976744186,0.27906976744186046,0.046511627906976744,0.023255813953488372,0.5632911392405063,0.4936708860759494,0.6012658227848101,0.5217391304347826,0.48695652173913045,0.6260869565217392,1
25,7,0.0,3.88,3.5714285714285716,1.68,0,0.32,1.68,1.36,1.16,0.76,0.24,0.16,0.24,0.28,0.0,0.0,0.6666666666666666,0.6527777777777778,0.7083333333333334,0.6382978723404256,0.5319148936170213,0.6595744680851063,1
17,5,0.0,3.764705882352941,3.4,1.6470588235294117,0,0.35294117647058826,1.6470588235294117,1.3529411764705883,1.0588235294117647,0.7058823529411765,0.29411764705882354,0.058823529411764705,0.17647058823529413,0.23529411764705882,0.0,0.0,0.6595744680851063,0.6595744680851063,0.6595744680851063,0.5666666666666667,0.5,0.5666666666666667,1
23,6,0.0,3.9130434782608696,3.8333333333333335,1.6956521739130435,0,0.17391304347826086,1.6956521739130435,1.5217391304347827,1.2173913043478262,0.782608695652174,0.17391304347826086,0.043478260869565216,0.043478260869565216,0.043478260869565216,0.0,0.0,0.8059701492537313,0.7910447761194029,0.7910447761194029,0.75,0.5,0.6590909090909091,1
227,15,1.6,4.889867841409692,15.133333333333333,2.0837004405286343,9,0.44933920704845814,2.0837004405286343,1.8149779735682818,1.502202643171806,0.8502202643171806,0.32599118942731276,0.2422907488986784,0.18502202643171806,0.3436123348017621,0.022026431718061675,0.0,0.6723356009070295,0.6519274376417233,0.6961451247165533,0.6473282442748092,0.5404580152671755,0.6290076335877862,1
119,18,0.0,4.428571428571429,6.611111111111111,1.8739495798319328,1,0.3865546218487395,1.8739495798319328,1.6134453781512605,1.3697478991596639,0.7983193277310925,0.2773109243697479,0.20168067226890757,0.15126050420168066,0.2605042016806723,0.0,0.0,0.7142857142857143,0.6600985221674877,0.7044334975369458,0.6288659793814433,0.5223367697594502,0.7353951890034365,1
94,9,1.2222222222222223,4.531914893617022,10.444444444444445,1.946808510638298,1,0.44680851063829785,1.946808510638298,1.648936170212766,1.3297872340425532,0.7553191489361702,0.2765957446808511,0.2127659574468085,0.1702127659574468,0.3617021276595745,0.02127659574468085,0.0,0.6566265060240963,0.6024096385542169,0.7078313253012049,0.6764705882352942,0.6260504201680672,0.7647058823529411,1
60,11,1.0833333333333333,4.65,5.454545454545454,2.1166666666666667,2,0.3333333333333333,2.1166666666666667,1.6833333333333333,1.5166666666666666,0.7833333333333333,0.23333333333333334,0.11666666666666667,0.13333333333333333,0.26666666666666666,0.0,0.0,0.7674418604651163,0.6837209302325581,0.7767441860465116,0.7086092715231788,0.5695364238410596,0.7483443708609272,1
23,8,0.0,3.869565217391304,2.875,1.4782608695652173,0,0.5217391304347826,1.4782608695652173,1.173913043478261,1.173913043478261,0.7391304347826086,0.5217391304347826,0.43478260869565216,0.043478260869565216,0.08695652173913043,0.0,0.0,0.7575757575757576,0.6363636363636364,0.7272727272727273,0.8372093023255814,0.7906976744186046,0.9069767441860465,1
48,16,0.0,4.75,3.0,1.9375,0,0.5833333333333334,1.9375,1.5,1.6041666666666667,0.8333333333333334,0.5833333333333334,0.4375,0.041666666666666664,0.10416666666666667,0.020833333333333332,0.0,0.6722222222222223,0.5611111111111111,0.6333333333333333,0.7575757575757576,0.6515151515151515,0.75,1
72,13,0.0,4.513888888888889,5.538461538461538,2.013888888888889,0,0.375,2.013888888888889,1.6111111111111112,1.4722222222222223,0.7083333333333334,0.3194444444444444,0.18055555555555555,0.09722222222222222,0.20833333333333334,0.027777777777777776,0.0,0.7928286852589641,0.7729083665338645,0.8127490039840638,0.7740112994350282,0.7288135593220338,0.847457627118644,1
49,10,1.1,3.979591836734694,4.9,1.836734693877551,0,0.24489795918367346,1.836734693877551,1.2448979591836735,1.346938775510204,0.6122448979591837,0.20408163265306123,0.061224489795918366,0.04081632653061224,0.08163265306122448,0.0,0.0,0.726027397260274,0.636986301369863,0.7397260273972602,0.5979381443298969,0.5670103092783505,0.6907216494845361,1
23,7,0.0,4.130434782608695,3.2857142857142856,1.7391304347826086,0,0.2608695652173913,1.7391304347826086,1.5217391304347827,1.3478260869565217,0.7391304347826086,0.2608695652173913,0.13043478260869565,0.08695652173913043,0.08695652173913043,0.0,0.0,0.7777777777777778,0.7916666666666666,0.8055555555555556,0.6326530612244898,0.5918367346938775,0.7346938775510204,1
19,6,0.0,3.9473684210526314,3.1666666666666665,1.736842105263158,0,0.2631578947368421,1.736842105263158,1.4736842105263157,1.1578947368421053,0.7368421052631579,0.2631578947368421,0.15789473684210525,0.10526315789473684,0.15789473684210525,0.0,0.0,0.625,0.5357142857142857,0.625,0.4594594594594595,0.3783783783783784,0.4864864864864865,1
6,3,0.0,4.0,2.0,1.6666666666666667,0,0.3333333333333333,1.6666666666666667,1.6666666666666667,1.0,1.0,0.3333333333333333,0.3333333333333333,0.3333333333333333,0.3333333333333333,0.0,0.0,0.8888888888888888,0.8888888888888888,0.8888888888888888,0.6666666666666666,0.6666666666666666,0.6666666666666666,1
8,2,0.0,3.25,4.0,1.5,0,0.25,1.5,1.25,0.75,0.5,0.25,0.0,0.0,0.0,0.0,0.0,1.0,1.0,1.0,1.0,1.0,1.0,1
20,5,0.0,3.05,4.0,1.55,0,0.05,1.55,1.4,0.5,0.45,0.05,0.0,0.0,0.0,0.0,0.0,0.926829268292683,0.926829268292683,0.926829268292683,0.8095238095238095,0.6666666666666666,0.9047619047619048,1
39,13,0.0,5.153846153846154,3.0,2.282051282051282,0,0.3333333333333333,2.282051282051282,1.9230769230769231,1.6923076923076923,0.8974358974358975,0.3333333333333333,0.28205128205128205,0.07692307692307693,0.1794871794871795,0.0,0.0,0.7018633540372671,0.6583850931677019,0.7453416149068323,0.6446280991735537,0.6198347107438017,0.7603305785123967,1
23,6,0.0,4.0,3.8333333333333335,1.7826086956521738,0,0.2608695652173913,1.7826086956521738,1.7391304347826086,1.0,0.782608695652174,0.21739130434782608,0.17391304347826086,0.08695652173913043,0.21739130434782608,0.0,0.0,0.6811594202898551,0.6376811594202898,0.6811594202898551,0.6521739130434783,0.5,0.6521739130434783,1
11,3,0.0,3.6363636363636362,3.6666666666666665,1.5454545454545454,0,0.36363636363636365,1.5454545454545454,1.3636363636363635,0.9090909090909091,0.7272727272727273,0.36363636363636365,0.18181818181818182,0.18181818181818182,0.18181818181818182,0.0,0.0,0.9310344827586207,0.9310344827586207,0.9310344827586207,0.7777777777777778,0.6666666666666666,0.7777777777777778,1
18,6,0.0,3.3333333333333335,3.0,1.5555555555555556,0,0.2222222222222222,1.5555555555555556,1.3333333333333333,0.7777777777777778,0.5555555555555556,0.2222222222222222,0.0,0.0,0.0,0.0,0.0,1.0,1.0,1.0,1.0,0.8333333333333334,1.0,1
21,6,0.0,3.761904761904762,3.5,1.6666666666666667,0,0.09523809523809523,1.6666666666666667,1.3333333333333333,1.1428571428571428,0.47619047619047616,0.09523809523809523,0.0,0.0,0.0,0.0,0.0,0.6140350877192983,0.6140350877192983,0.6140350877192983,0.34285714285714286,0.5142857142857142,0.8857142857142857,1
22,6,0.0,5.181818181818182,3.6666666666666665,2.090909090909091,0,0.6363636363636364,2.090909090909091,1.7272727272727273,1.7272727272727273,1.1818181818181819,0.6363636363636364,0.36363636363636365,0.36363636363636365,0.4090909090909091,0.18181818181818182,0.0,0.6483516483516484,0.6263736263736264,0.7252747252747253,0.5942028985507246,0.4927536231884058,0.6376811594202898,1
138,16,1.0666666666666667,4.7898550724637685,8.625,2.072463768115942,2,0.45652173913043476,2.072463768115942,1.7826086956521738,1.4492753623188406,0.8913043478260869,0.37681159420289856,0.2608695652173913,0.15942028985507245,0.3188405797101449,0.050724637681159424,0.0,0.675,0.6519230769230769,0.698076923076923,0.639686684073107,0.5691906005221932,0.6814621409921671,1
52,10,1.1,5.211538461538462,5.2,2.25,0,0.4807692307692308,2.25,2.0,1.6346153846153846,0.9807692307692307,0.4230769230769231,0.38461538461538464,0.19230769230769232,0.34615384615384615,0.019230769230769232,0.0,0.7741935483870968,0.6728110599078341,0.7926267281105991,0.7484662576687117,0.7116564417177914,0.8220858895705522,1
47,8,0.0,4.23404255319149,5.875,1.872340425531915,0,0.3617021276595745,1.872340425531915,1.6382978723404256,1.1702127659574468,0.7872340425531915,0.3191489361702128,0.23404255319148937,0.1702127659574468,0.23404255319148937,0.0,0.0,0.6776315789473685,0.5855263157894737,0.6973684210526315,0.638095238095238,0.5714285714285714,0.6857142857142857,1
75,21,0.0,4.84,3.5714285714285716,2.08,1,0.4666666666666667,2.08,1.7733333333333334,1.52,0.8933333333333333,0.4,0.22666666666666666,0.14666666666666667,0.32,0.02666666666666667,0.0,0.6818181818181818,0.6573426573426573,0.7027972027972028,0.5885167464114832,0.5215311004784688,0.6555023923444976,1
40,14,0.0,4.45,2.857142857142857,1.875,0,0.475,1.875,1.575,1.325,0.825,0.4,0.25,0.25,0.35,0.05,0.0,0.7028985507246377,0.6666666666666666,0.7028985507246377,0.5306122448979592,0.5,0.6122448979591837,1
41,11,0.0,4.7317073170731705,3.727272727272727,1.853658536585366,0,0.4634146341463415,1.853658536585366,1.6829268292682926,1.5853658536585367,0.975609756097561,0.43902439024390244,0.2682926829268293,0.1951219512195122,0.24390243902439024,0.0,0.0,0.8562091503267973,0.8366013071895425,0.8758169934640523,0.7767857142857143,0.6071428571428571,0.7857142857142857,1
21,6,0.0,4.904761904761905,3.5,2.142857142857143,0,0.09523809523809523,2.142857142857143,1.9523809523809523,1.8095238095238095,0.9047619047619048,0.09523809523809523,0.09523809523809523,0.0,0.0,0.0,0.0,0.7407407407407407,0.6419753086419753,0.7160493827160493,0.6440677966101694,0.423728813559322,0.6779661016949152,1
30,6,0.0,3.1666666666666665,5.0,1.5666666666666667,0,0.03333333333333333,1.5666666666666667,1.5,0.6333333333333333,0.5666666666666667,0.03333333333333333,0.0,0.0,0.0,0.0,0.0,0.8,0.7846153846153846,0.8769230769230769,0.7428571428571429,0.6285714285714286,0.6,1
139,18,1.6470588235294117,4.906474820143885,7.722222222222222,2.093525179856115,1,0.5107913669064749,2.093525179856115,1.7410071942446044,1.5323741007194245,0.8776978417266187,0.4892086330935252,0.302158273381295,0.2158273381294964,0.302158273381295,0.05755395683453238,0.007194244604316547,0.7486033519553073,0.7057728119180633,0.7337057728119181,0.7372448979591837,0.6530612244897959,0.7627551020408163,1
21,6,0.0,4.809523809523809,3.5,2.238095238095238,0,0.2857142857142857,2.238095238095238,1.9523809523809523,1.5238095238095237,0.9523809523809523,0.2857142857142857,0.2857142857142857,0.14285714285714285,0.23809523809523808,0.0,0.0,0.7625,0.7125,0.75,0.7377049180327869,0.639344262295082,0.8032786885245902,1
12,5,1.2,3.5,2.4,1.6666666666666667,0,0.16666666666666666,1.6666666666666667,1.5,0.8333333333333334,0.6666666666666666,0.16666666666666666,0.0,0.0,0.0,0.0,0.0,1.0,1.0,1.0,1.0,0.7222222222222222,1.0,1
100,10,4.545454545454546,3.59,10.0,1.45,0,0.4,1.45,1.1,1.08,0.55,0.26,0.14,0.07,0.19,0.0,0.0,0.75390625,0.73046875,0.78515625,0.7430167597765364,0.6256983240223464,0.7988826815642458,1
51,10,0.0,4.823529411764706,5.1,2.0392156862745097,0,0.43137254901960786,2.0392156862745097,1.7450980392156863,1.4901960784313726,0.9215686274509803,0.37254901960784315,0.29411764705882354,0.17647058823529413,0.3333333333333333,0.0196078431372549,0.0,0.7128205128205128,0.6666666666666666,0.6923076923076923,0.7172413793103448,0.5862068965517241,0.7517241379310344,1
36,11,1.1818181818181819,4.583333333333333,3.272727272727273,1.9166666666666667,0,0.4722222222222222,1.9166666666666667,1.5555555555555556,1.4444444444444444,0.8333333333333334,0.3888888888888889,0.19444444444444445,0.1388888888888889,0.2777777777777778,0.027777777777777776,0.0,0.7054263565891473,0.5891472868217055,0.7054263565891473,0.6236559139784946,0.5268817204301075,0.6989247311827957,1
16,4,0.0,3.5625,4.0,1.625,0,0.125,1.625,1.375,0.9375,0.5625,0.0625,0.0,0.0,0.0625,0.0,0.0,0.7560975609756098,0.7073170731707317,0.8048780487804879,0.6,0.56,0.76,1
10,4,0.0,4.1,2.5,1.6,0,0.5,1.6,1.5,1.1,1.0,0.5,0.4,0.3,0.3,0.0,0.0,0.9032258064516129,0.9032258064516129,0.9032258064516129,0.7142857142857143,0.7142857142857143,0.7142857142857143,1
27,8,0.0,3.3703703703703702,3.375,1.5555555555555556,0,0.2222222222222222,1.5555555555555556,1.2962962962962963,0.8148148148148148,0.5555555555555556,0.2222222222222222,0.037037037037037035,0.037037037037037035,0.037037037037037035,0.0,0.0,0.84375,0.84375,0.859375,0.7631578947368421,0.7631578947368421,0.8421052631578947,1
35,12,0.0,4.714285714285714,2.9166666666666665,1.9714285714285715,0,0.5714285714285714,1.9714285714285715,1.6571428571428573,1.2571428571428571,0.7428571428571429,0.4857142857142857,0.3142857142857143,0.2,0.4857142857142857,0.11428571428571428,0.05714285714285714,0.5692307692307692,0.6,0.5923076923076923,0.5157894736842106,0.45263157894736844,0.5578947368421052,1
23,8,0.0,5.304347826086956,2.875,2.260869565217391,1,0.4782608695652174,2.260869565217391,1.7826086956521738,1.6956521739130435,0.782608695652174,0.43478260869565216,0.21739130434782608,0.08695652173913043,0.34782608695652173,0.08695652173913043,0.0,0.7311827956989247,0.7526881720430108,0.7419354838709677,0.578125,0.625,0.828125,1
43,8,1.25,4.186046511627907,5.375,1.7674418604651163,0,0.3953488372093023,1.7674418604651163,1.441860465116279,1.302325581395349,0.7209302325581395,0.20930232558139536,0.11627906976744186,0.18604651162790697,0.27906976744186046,0.0,0.0,0.6788321167883211,0.7007299270072993,0.7372262773722628,0.5208333333333334,0.5208333333333334,0.7083333333333334,1
44,10,0.0,5.181818181818182,4.4,2.3863636363636362,1,0.29545454545454547,2.3863636363636362,2.022727272727273,1.75,1.0227272727272727,0.2727272727272727,0.22727272727272727,0.11363636363636363,0.1590909090909091,0.0,0.0,0.7049180327868853,0.6557377049180327,0.7158469945355191,0.6884057971014492,0.644927536231884,0.7608695652173914,1
23,6,0.0,3.869565217391304,3.8333333333333335,1.6956521739130435,0,0.391304347826087,1.6956521739130435,1.2608695652173914,1.0869565217391304,0.5652173913043478,0.2608695652173913,0.08695652173913043,0.08695652173913043,0.2608695652173913,0.0,0.0,0.6615384615384615,0.6153846153846154,0.6461538461538462,0.6341463414634146,0.6097560975609756,0.7073170731707317,1
53,16,1.125,5.69811320754717,3.3125,2.452830188679245,3,0.37735849056603776,2.452830188679245,2.2641509433962264,1.9811320754716981,1.2452830188679245,0.37735849056603776,0.32075471698113206,0.20754716981132076,0.2830188679245283,0.0,0.0,0.7309236947791165,0.6626506024096386,0.7028112449799196,0.6989795918367347,0.6224489795918368,0.75,1
83,13,1.0769230769230769,4.144578313253012,6.384615384615385,1.8313253012048192,0,0.30120481927710846,1.8313253012048192,1.5662650602409638,1.1686746987951808,0.6987951807228916,0.27710843373493976,0.13253012048192772,0.10843373493975904,0.1927710843373494,0.012048192771084338,0.0,0.6038461538461538,0.5576923076923077,0.5884615384615385,0.5139664804469274,0.4301675977653631,0.5698324022346368,1
45,5,1.4,4.644444444444445,9.0,1.8222222222222222,1,0.4,1.8222222222222222,1.6222222222222222,1.511111111111111,0.9111111111111111,0.3111111111111111,0.2222222222222222,0.17777777777777778,0.28888888888888886,0.044444444444444446,0.0,0.6158536585365854,0.5914634146341463,0.6402439024390244,0.5333333333333333,0.5416666666666666,0.5916666666666667,1
54,16,1.0625,5.166666666666667,3.375,2.240740740740741,1,0.46296296296296297,2.240740740740741,1.8333333333333333,1.7222222222222223,0.9629629629629629,0.37037037037037035,0.24074074074074073,0.2037037037037037,0.2777777777777778,0.05555555555555555,0.0,0.6711711711711712,0.6666666666666666,0.6801801801801802,0.608433734939759,0.5421686746987951,0.7048192771084337,1
41,12,0.0,4.878048780487805,3.4166666666666665,2.1463414634146343,0,0.24390243902439024,2.1463414634146343,1.951219512195122,1.5609756097560976,0.9512195121951219,0.14634146341463414,0.12195121951219512,0.0975609756097561,0.17073170731707318,0.0,0.0,0.7088607594936709,0.6772151898734177,0.7658227848101266,0.6810344827586207,0.603448275862069,0.8103448275862069,1
44,10,0.0,4.681818181818182,4.4,2.1363636363636362,1,0.3409090909090909,2.1363636363636362,1.9090909090909092,1.3409090909090908,0.8409090909090909,0.3181818181818182,0.22727272727272727,0.06818181818181818,0.22727272727272727,0.0,0.0,0.7592592592592593,0.6666666666666666,0.7901234567901234,0.6440677966101694,0.5423728813559322,0.7796610169491526,1
128,9,6.2,3.5546875,14.222222222222221,1.4765625,0,0.3359375,1.4765625,1.296875,0.90625,0.578125,0.21875,0.1484375,0.0859375,0.1875,0.015625,0.0,0.5214723926380368,0.46932515337423314,0.5460122699386503,0.4080717488789238,0.3901345291479821,0.5022421524663677,1
47,10,1.1,5.617021276595745,4.7,2.297872340425532,1,0.5106382978723404,2.297872340425532,2.0851063829787235,2.0,1.1063829787234043,0.40425531914893614,0.3191489361702128,0.2978723404255319,0.44680851063829785,0.02127659574468085,0.0,0.7777777777777778,0.7962962962962963,0.8009259259259259,0.6904761904761905,0.6071428571428571,0.7619047619047619,1
70,12,1.25,4.542857142857143,5.833333333333333,2.057142857142857,0,0.2571428571428571,2.057142857142857,1.7142857142857142,1.5142857142857142,0.8428571428571429,0.22857142857142856,0.14285714285714285,0.07142857142857142,0.12857142857142856,0.0,0.0,0.7836734693877551,0.6857142857142857,0.7877551020408163,0.6820809248554913,0.6416184971098265,0.7803468208092486,1
62,15,1.1333333333333333,4.258064516129032,4.133333333333334,1.9838709677419355,0,0.24193548387096775,1.9838709677419355,1.6451612903225807,1.3548387096774193,0.7580645161290323,0.20967741935483872,0.11290322580645161,0.06451612903225806,0.11290322580645161,0.0,0.0,0.78,0.68,0.78,0.7352941176470589,0.5955882352941176,0.7647058823529411,1
24,6,0.0,3.5416666666666665,4.0,1.75,0,0.125,1.75,1.4583333333333333,0.875,0.5416666666666666,0.125,0.0,0.041666666666666664,0.041666666666666664,0.0,0.0,0.8360655737704918,0.8360655737704918,0.8032786885245902,0.7567567567567568,0.5945945945945946,0.7837837837837838,1
54,10,1.2,5.018518518518518,5.4,2.1296296296296298,0,0.4444444444444444,2.1296296296296298,1.8518518518518519,1.6296296296296295,1.0,0.4074074074074074,0.2962962962962963,0.14814814814814814,0.2222222222222222,0.018518518518518517,0.018518518518518517,0.7757009345794392,0.7102803738317757,0.7850467289719626,0.7388535031847133,0.6178343949044586,0.7961783439490446,1
40,8,0.0,4.975,5.0,2.175,1,0.375,2.175,1.925,1.675,0.975,0.375,0.225,0.15,0.225,0.0,0.0,0.7133757961783439,0.6178343949044586,0.6878980891719745,0.6608695652173913,0.6347826086956522,0.7478260869565218,1
39,9,0.0,4.589743589743589,4.333333333333333,2.051282051282051,0,0.1794871794871795,2.051282051282051,1.8461538461538463,1.4615384615384615,0.8461538461538461,0.1282051282051282,0.1282051282051282,0.05128205128205128,0.10256410256410256,0.0,0.0,0.6785714285714286,0.65,0.6642857142857143,0.6435643564356436,0.594059405940594,0.7326732673267327,1
154,24,1.7894736842105263,4.4480519480519485,6.416666666666667,1.8831168831168832,0,0.461038961038961,1.8831168831168832,1.6233766233766234,1.2857142857142858,0.7922077922077922,0.38311688311688313,0.2532467532467532,0.19480519480519481,0.34415584415584416,0.05194805194805195,0.012987012987012988,0.7277882797731569,0.7051039697542533,0.7277882797731569,0.6702412868632708,0.6085790884718498,0.7345844504021448,1
51,10,1.2,4.764705882352941,5.1,2.0588235294117645,0,0.39215686274509803,2.0588235294117645,1.7647058823529411,1.5490196078431373,0.9215686274509803,0.29411764705882354,0.17647058823529413,0.21568627450980393,0.3137254901960784,0.0196078431372549,0.0,0.6302083333333334,0.5989583333333334,0.671875,0.6028368794326241,0.5531914893617021,0.75177304964539,1
19,6,0.0,3.473684210526316,3.1666666666666665,1.5789473684210527,0,0.3157894736842105,1.5789473684210527,1.3157894736842106,0.7894736842105263,0.5263157894736842,0.21052631578947367,0.0,0.0,0.10526315789473684,0.0,0.0,0.9361702127659575,0.9361702127659575,0.9787234042553191,0.6428571428571429,0.6428571428571429,0.7857142857142857,1
43,8,0.0,4.72093023255814,5.375,2.0697674418604652,0,0.23255813953488372,2.0697674418604652,1.7906976744186047,1.6046511627906976,0.8837209302325582,0.23255813953488372,0.20930232558139536,0.09302325581395349,0.11627906976744186,0.0,0.0,0.6477987421383647,0.5660377358490566,0.6163522012578616,0.6434782608695652,0.5565217391304348,0.7217391304347827,1
44,10,0.0,4.568181818181818,4.4,2.0,0,0.3409090909090909,2.0,1.6590909090909092,1.4772727272727273,0.75,0.2727272727272727,0.11363636363636363,0.1590909090909091,0.1590909090909091,0.0,0.0,0.6242038216560509,0.5732484076433121,0.6114649681528662,0.5663716814159292,0.5752212389380531,0.7522123893805309,1
40,10,0.0,5.475,4.0,2.375,1,0.45,2.375,2.175,1.7,1.075,0.425,0.4,0.175,0.35,0.0,0.0,0.6988636363636364,0.6477272727272727,0.7215909090909091,0.6466165413533834,0.5714285714285714,0.7218045112781954,1
16,6,0.0,4.5,2.6666666666666665,1.75,0,0.5625,1.75,1.375,1.5625,0.9375,0.5625,0.25,0.375,0.375,0.0,0.0,0.8214285714285714,0.7678571428571429,0.8035714285714286,0.775,0.625,0.875,1
36,8,0.0,5.416666666666667,4.5,2.388888888888889,2,0.3888888888888889,2.388888888888889,2.0,1.9166666666666667,0.8888888888888888,0.3611111111111111,0.2222222222222222,0.08333333333333333,0.16666666666666666,0.0,0.0,0.7721518987341772,0.740506329113924,0.7531645569620253,0.7603305785123967,0.6198347107438017,0.8429752066115702,1
39,12,0.0,5.384615384615385,3.25,2.3076923076923075,0,0.4358974358974359,2.3076923076923075,1.9743589743589745,1.8717948717948718,1.0512820512820513,0.41025641025641024,0.23076923076923078,0.15384615384615385,0.28205128205128205,0.07692307692307693,0.0,0.7228915662650602,0.6445783132530121,0.7048192771084337,0.6475409836065574,0.5573770491803278,0.6967213114754098,1
64,13,0.0,4.875,4.923076923076923,2.015625,0,0.5,2.015625,1.84375,1.34375,0.953125,0.40625,0.296875,0.21875,0.375,0.109375,0.0,0.6270491803278688,0.5737704918032787,0.6352459016393442,0.519774011299435,0.5141242937853108,0.5423728813559322,1
12,6,0.0,3.3333333333333335,2.0,1.6666666666666667,0,0.0,1.6666666666666667,1.5,0.6666666666666666,0.5833333333333334,0.0,0.0,0.0,0.0,0.0,0.0,0.8214285714285714,0.5714285714285714,0.8214285714285714,0.375,0.375,0.5625,1
19,6,0.0,3.9473684210526314,3.1666666666666665,1.5263157894736843,0,0.42105263157894735,1.5263157894736843,1.0526315789473684,1.4736842105263157,0.8421052631578947,0.42105263157894735,0.15789473684210525,0.15789473684210525,0.15789473684210525,0.0,0.0,0.8888888888888888,0.7037037037037037,0.6111111111111112,0.3939393939393939,0.3939393939393939,0.7272727272727273,1
51,18,0.0,5.03921568627451,2.8333333333333335,2.176470588235294,0,0.39215686274509803,2.176470588235294,1.8235294117647058,1.4901960784313726,0.8823529411764706,0.35294117647058826,0.27450980392156865,0.13725490196078433,0.29411764705882354,0.0196078431372549,0.0196078431372549,0.6359223300970874,0.6067961165048543,0.6310679611650486,0.6129032258064516,0.5806451612903226,0.7483870967741936,1
19,6,0.0,4.052631578947368,3.1666666666666665,1.736842105263158,0,0.2631578947368421,1.736842105263158,1.5263157894736843,1.263157894736842,0.8947368421052632,0.2631578947368421,0.15789473684210525,0.15789473684210525,0.15789473684210525,0.0,0.0,0.7543859649122807,0.7543859649122807,0.8070175438596491,0.8947368421052632,0.8947368421052632,0.8947368421052632,1
83,9,1.1111111111111112,4.843373493975903,9.222222222222221,1.9759036144578312,0,0.5060240963855421,1.9759036144578312,1.7590361445783131,1.4819277108433735,0.891566265060241,0.3493975903614458,0.27710843373493976,0.18072289156626506,0.3614457831325301,0.012048192771084338,0.0,0.7760252365930599,0.7570977917981072,0.7949526813880127,0.776824034334764,0.6781115879828327,0.776824034334764,1
28,6,0.0,4.107142857142857,4.666666666666667,1.7142857142857142,0,0.2857142857142857,1.7142857142857142,1.2142857142857142,1.3928571428571428,0.5714285714285714,0.17857142857142858,0.17857142857142858,0.07142857142857142,0.17857142857142858,0.0,0.0,0.4827586206896552,0.45977011494252873,0.4942528735632184,0.4576271186440678,0.4406779661016949,0.5084745762711864,1
15,7,0.0,4.4,2.142857142857143,1.8666666666666667,0,0.0,1.8666666666666667,1.8666666666666667,1.5333333333333334,0.8666666666666667,0.0,0.0,0.0,0.0,0.0,0.0,0.9411764705882353,0.9411764705882353,0.9607843137254902,0.9722222222222222,0.8611111111111112,0.9166666666666666,1
54,10,1.1,3.962962962962963,5.4,1.8888888888888888,0,0.09259259259259259,1.8888888888888888,1.7222222222222223,1.0740740740740742,0.7222222222222222,0.07407407407407407,0.037037037037037035,0.037037037037037035,0.05555555555555555,0.0,0.0,0.66875,0.63125,0.68125,0.5943396226415094,0.4339622641509434,0.6509433962264151,1
70,21,1.1,3.7285714285714286,3.3333333333333335,1.7,0,0.32857142857142857,1.7,1.3142857142857143,1.0714285714285714,0.6428571428571429,0.3142857142857143,0.3,0.014285714285714285,0.02857142857142857,0.0,0.0,0.6073298429319371,0.5287958115183246,0.5968586387434555,0.6942148760330579,0.7024793388429752,0.8760330578512396,1
15,4,0.0,3.533333333333333,3.75,1.5333333333333334,0,0.3333333333333333,1.5333333333333334,1.3333333333333333,0.8666666666666667,0.6666666666666666,0.3333333333333333,0.13333333333333333,0.13333333333333333,0.13333333333333333,0.0,0.0,0.9473684210526315,0.9473684210526315,0.9473684210526315,0.8260869565217391,0.8260869565217391,0.8260869565217391,1
4,1,0.0,3.25,4.0,1.5,0,0.25,1.5,1.25,0.75,0.5,0.25,0.0,0.0,0.0,0.0,0.0,1.0,1.0,1.0,1.0,1.0,1.0,1
21,6,0.0,4.380952380952381,3.5,2.142857142857143,0,0.19047619047619047,2.142857142857143,1.6666666666666667,1.380952380952381,0.6190476190476191,0.19047619047619047,0.09523809523809523,0.09523809523809523,0.19047619047619047,0.047619047619047616,0.0,0.7647058823529411,0.7058823529411765,0.6911764705882353,0.6818181818181818,0.6818181818181818,0.7727272727272727,1
67,16,0.0,5.208955223880597,4.1875,2.1343283582089554,0,0.43283582089552236,2.1343283582089554,1.835820895522388,1.8656716417910448,1.0,0.40298507462686567,0.13432835820895522,0.1044776119402985,0.13432835820895522,0.014925373134328358,0.0,0.6334519572953736,0.6548042704626335,0.697508896797153,0.6635514018691588,0.5420560747663551,0.7009345794392523,1
101,11,1.0909090909090908,4.821782178217822,9.181818181818182,1.9306930693069306,1,0.45544554455445546,1.9306930693069306,1.7524752475247525,1.504950495049505,0.900990099009901,0.44554455445544555,0.36633663366336633,0.1485148514851485,0.22772277227722773,0.0891089108910891,0.0,0.7291666666666666,0.7109375,0.7447916666666666,0.6548042704626335,0.6227758007117438,0.7366548042704626,1
12,5,0.0,3.6666666666666665,2.4,1.5,0,0.25,1.5,1.5,0.9166666666666666,0.9166666666666666,0.25,0.25,0.25,0.25,0.0,0.0,0.90625,0.90625,0.90625,0.7,0.65,0.7,1
40,6,0.0,4.55,6.666666666666667,1.9,0,0.45,1.9,1.5,1.475,0.8,0.4,0.275,0.175,0.25,0.1,0.0,0.7464788732394366,0.6619718309859155,0.7464788732394366,0.6568627450980392,0.7156862745098039,0.8137254901960784,1
16,6,0.0,3.5,2.6666666666666665,1.6875,0,0.25,1.6875,1.3125,0.8125,0.375,0.25,0.0,0.0,0.1875,0.0,0.0,0.625,0.625,0.625,0.08333333333333333,0.25,0.3333333333333333,1
31,7,0.0,4.774193548387097,4.428571428571429,2.193548387096774,0,0.3548387096774194,2.193548387096774,1.7741935483870968,1.5161290322580645,1.032258064516129,0.3225806451612903,0.16129032258064516,0.12903225806451613,0.25806451612903225,0.06451612903225806,0.0,0.7327586206896551,0.7068965517241379,0.7241379310344828,0.6547619047619048,0.6547619047619048,0.75,1
4,2,0.0,3.5,2.0,1.75,0,0.0,1.75,1.75,0.75,0.75,0.0,0.0,0.0,0.0,0.0,0.0,1.0,1.0,1.0,1.0,0.8333333333333334,1.0,1
7,2,0.0,3.2857142857142856,3.5,1.5714285714285714,0,0.14285714285714285,1.5714285714285714,1.4285714285714286,0.7142857142857143,0.5714285714285714,0.14285714285714285,0.0,0.0,0.0,0.0,0.0,1.0,1.0,1.0,1.0,0.7777777777777778,1.0,1
55,11,1.1,5.327272727272727,5.0,2.2181818181818183,0,0.509090909090909,2.2181818181818183,2.0545454545454547,1.7272727272727273,1.1090909090909091,0.41818181818181815,0.34545454545454546,0.18181818181818182,0.36363636363636365,0.07272727272727272,0.01818181818181818,0.690677966101695,0.6483050847457628,0.6949152542372882,0.6424581005586593,0.5977653631284916,0.6536312849162011,1
52,11,1.2222222222222223,4.961538461538462,4.7272727272727275,1.9807692307692308,0,0.5,1.9807692307692308,1.8269230769230769,1.5576923076923077,1.0769230769230769,0.40384615384615385,0.28846153846153844,0.3076923076923077,0.34615384615384615,0.057692307692307696,0.0,0.5609756097560976,0.551219512195122,0.5756097560975609,0.506578947368421,0.40789473684210525,0.5460526315789473,1
55,6,0.0,3.8545454545454545,9.166666666666666,1.8,0,0.21818181818181817,1.8,1.509090909090909,1.0363636363636364,0.6181818181818182,0.21818181818181817,0.10909090909090909,0.07272727272727272,0.18181818181818182,0.03636363636363636,0.0,0.6942675159235668,0.5859872611464968,0.6624203821656051,0.5294117647058824,0.46078431372549017,0.49019607843137253,1
19,5,0.0,4.0,3.8,1.736842105263158,0,0.3157894736842105,1.736842105263158,1.5263157894736843,1.105263157894737,0.7368421052631579,0.21052631578947367,0.21052631578947367,0.05263157894736842,0.15789473684210525,0.0,0.0,0.7368421052631579,0.6842105263157895,0.7719298245614035,0.868421052631579,0.6842105263157895,0.7631578947368421,1
13,3,0.0,3.6923076923076925,4.333333333333333,1.6153846153846154,0,0.3076923076923077,1.6153846153846154,1.4615384615384615,0.9230769230769231,0.7692307692307693,0.3076923076923077,0.15384615384615385,0.15384615384615385,0.15384615384615385,0.0,0.0,0.9428571428571428,0.9428571428571428,0.9428571428571428,0.8181818181818182,0.6818181818181818,0.8181818181818182,1
7,0,0.0,4.571428571428571,7.0,1.8571428571428572,0,0.2857142857142857,1.8571428571428572,1.8571428571428572,1.4285714285714286,1.2857142857142858,0.2857142857142857,0.2857142857142857,0.2857142857142857,0.2857142857142857,0.0,0.0,0.92,0.92,0.92,0.7222222222222222,0.7222222222222222,0.7222222222222222,1
54,11,0.0,4.925925925925926,4.909090909090909,2.0,0,0.46296296296296297,2.0,1.7592592592592593,1.4814814814814814,0.9629629629629629,0.3888888888888889,0.2777777777777778,0.18518518518518517,0.35185185185185186,0.018518518518518517,0.018518518518518517,0.7014218009478673,0.6919431279620853,0.7251184834123223,0.6666666666666666,0.6153846153846154,0.7435897435897436,1
54,16,1.375,4.648148148148148,3.375,2.1666666666666665,0,0.18518518518518517,2.1666666666666665,1.8888888888888888,1.5185185185185186,0.8888888888888888,0.14814814814814814,0.14814814814814814,0.018518518518518517,0.07407407407407407,0.0,0.0,0.6614583333333334,0.6197916666666666,0.6770833333333334,0.6165413533834586,0.5714285714285714,0.7368421052631579,1
56,18,0.0,5.0,3.111111111111111,2.0714285714285716,0,0.42857142857142855,2.0714285714285716,1.75,1.5892857142857142,0.9285714285714286,0.375,0.2857142857142857,0.21428571428571427,0.3392857142857143,0.03571428571428571,0.0,0.6363636363636364,0.5863636363636363,0.6681818181818182,0.56875,0.5,0.66875,1
44,8,0.0,5.159090909090909,5.5,2.1818181818181817,1,0.5454545454545454,2.1818181818181817,1.9090909090909092,1.6590909090909092,0.8863636363636364,0.4318181818181818,0.22727272727272727,0.09090909090909091,0.20454545454545456,0.0,0.0,0.639344262295082,0.6284153005464481,0.6830601092896175,0.60431654676259,0.5323741007194245,0.6258992805755396,1
89,23,1.3478260869565217,5.269662921348314,3.869565217391304,2.404494382022472,2,0.34831460674157305,2.404494382022472,2.101123595505618,1.6629213483146068,0.898876404494382,0.3258426966292135,0.24719101123595505,0.0898876404494382,0.21348314606741572,0.033707865168539325,0.0,0.6870026525198939,0.6153846153846154,0.7161803713527851,0.6807017543859649,0.5894736842105263,0.7719298245614035,1
21,4,0.0,4.904761904761905,5.25,1.8571428571428572,0,0.6666666666666666,1.8571428571428572,1.6666666666666667,1.5238095238095237,0.9523809523809523,0.5714285714285714,0.42857142857142855,0.2857142857142857,0.47619047619047616,0.047619047619047616,0.047619047619047616,0.6219512195121951,0.6097560975609756,0.6219512195121951,0.5409836065573771,0.5081967213114754,0.45901639344262296,1
39,7,0.0,4.256410256410256,5.571428571428571,1.8461538461538463,0,0.358974358974359,1.8461538461538463,1.5384615384615385,1.2820512820512822,0.6666666666666666,0.20512820512820512,0.1794871794871795,0.1282051282051282,0.2564102564102564,0.02564102564102564,0.0,0.7322834645669292,0.7244094488188977,0.7559055118110236,0.6363636363636364,0.6477272727272727,0.7954545454545454,1
31,12,0.0,4.806451612903226,2.5833333333333335,2.161290322580645,0,0.22580645161290322,2.161290322580645,2.0,1.4516129032258065,1.0,0.22580645161290322,0.16129032258064516,0.03225806451612903,0.06451612903225806,0.0,0.0,0.6949152542372882,0.5932203389830508,0.6779661016949152,0.6781609195402298,0.5517241379310345,0.6551724137931034,1
21,6,0.0,4.095238095238095,3.5,1.6666666666666667,0,0.42857142857142855,1.6666666666666667,1.380952380952381,1.2857142857142858,0.7619047619047619,0.38095238095238093,0.23809523809523808,0.14285714285714285,0.19047619047619047,0.0,0.0,0.7692307692307693,0.7846153846153846,0.7692307692307693,0.75,0.6590909090909091,0.7954545454545454,1
52,7,0.0,4.75,7.428571428571429,2.0,0,0.5576923076923077,2.0,1.5961538461538463,1.4615384615384615,0.8461538461538461,0.5,0.3076923076923077,0.1346153846153846,0.3076923076923077,0.019230769230769232,0.0,0.6958762886597938,0.6391752577319587,0.7010309278350515,0.6312056737588653,0.5957446808510638,0.7659574468085106,1
22,6,0.0,3.272727272727273,3.6666666666666665,1.5,0,0.18181818181818182,1.5,1.2272727272727273,0.8636363636363636,0.5909090909090909,0.18181818181818182,0.0,0.0,0.0,0.0,0.0,0.9591836734693877,0.9591836734693877,0.9591836734693877,1.0,0.6923076923076923,1.0,1
225,15,1.6,4.8933333333333335,15.0,2.0844444444444443,9,0.4533333333333333,2.0844444444444443,1.8133333333333332,1.5022222222222221,0.8488888888888889,0.3288888888888889,0.24444444444444444,0.18666666666666668,0.3466666666666667,0.022222222222222223,0.0,0.6697142857142857,0.6491428571428571,0.6948571428571428,0.6446153846153846,0.54,0.6292307692307693,1
79,12,1.6,4.848101265822785,6.583333333333333,1.9873417721518987,1,0.35443037974683544,1.9873417721518987,1.7848101265822784,1.5949367088607596,0.9367088607594937,0.3291139240506329,0.22784810126582278,0.20253164556962025,0.25316455696202533,0.012658227848101266,0.0,0.6245847176079734,0.6013289036544851,0.6511627906976745,0.593607305936073,0.5525114155251142,0.6894977168949772,1
53,10,0.0,4.283018867924528,5.3,1.849056603773585,0,0.2830188679245283,1.849056603773585,1.6603773584905661,1.2830188679245282,0.7169811320754716,0.22641509433962265,0.16981132075471697,0.05660377358490566,0.20754716981132076,0.0,0.0,0.6011560693641619,0.5606936416184971,0.6358381502890174,0.5966386554621849,0.5462184873949579,0.6302521008403361,1
23,6,0.0,3.739130434782609,3.8333333333333335,1.608695652173913,0,0.21739130434782608,1.608695652173913,1.3043478260869565,1.173913043478261,0.5652173913043478,0.21739130434782608,0.08695652173913043,0.043478260869565216,0.043478260869565216,0.0,0.0,0.8253968253968254,0.8253968253968254,0.8571428571428571,0.75,0.775,0.925,1
126,14,1.6666666666666667,4.428571428571429,9.0,1.8571428571428572,1,0.5,1.8571428571428572,1.5,1.3571428571428572,0.6746031746031746,0.40476190476190477,0.3253968253968254,0.06349206349206349,0.1984126984126984,0.007936507936507936,0.0,0.7337962962962963,0.7106481481481481,0.7453703703703703,0.6862745098039216,0.6241830065359477,0.7549019607843137,1
48,10,1.1,4.4375,4.8,1.9166666666666667,0,0.3958333333333333,1.9166666666666667,1.5208333333333333,1.3958333333333333,0.6875,0.3333333333333333,0.25,0.041666666666666664,0.14583333333333334,0.0,0.0,0.7361963190184049,0.7239263803680982,0.7607361963190185,0.7079646017699115,0.5575221238938053,0.7433628318584071,1
99,12,1.4166666666666667,4.777777777777778,8.25,2.0303030303030303,1,0.4444444444444444,2.0303030303030303,1.7373737373737375,1.4747474747474747,0.8686868686868687,0.3838383838383838,0.25252525252525254,0.1919191919191919,0.32323232323232326,0.050505050505050504,0.010101010101010102,0.6378378378378379,0.5972972972972973,0.6702702702702703,0.6162361623616236,0.4944649446494465,0.6051660516605166,1
99,12,1.4166666666666667,4.777777777777778,8.25,2.0303030303030303,1,0.4444444444444444,2.0303030303030303,1.7373737373737375,1.4747474747474747,0.8686868686868687,0.3838383838383838,0.25252525252525254,0.1919191919191919,0.32323232323232326,0.050505050505050504,0.010101010101010102,0.6378378378378379,0.5972972972972973,0.6702702702702703,0.6162361623616236,0.4944649446494465,0.6051660516605166,1
62,8,1.125,5.225806451612903,7.75,2.3225806451612905,2,0.46774193548387094,2.3225806451612905,1.903225806451613,1.596774193548387,0.8870967741935484,0.41935483870967744,0.3387096774193548,0.1935483870967742,0.3709677419354839,0.016129032258064516,0.0,0.5823754789272031,0.5440613026819924,0.5823754789272031,0.51010101010101,0.494949494949495,0.5808080808080808,1
85,8,1.625,4.341176470588235,10.625,1.8470588235294119,0,0.36470588235294116,1.8470588235294119,1.5529411764705883,1.3764705882352941,0.8470588235294118,0.3176470588235294,0.23529411764705882,0.11764705882352941,0.24705882352941178,0.03529411764705882,0.011764705882352941,0.6795774647887324,0.6338028169014085,0.6901408450704225,0.6180904522613065,0.5025125628140703,0.7135678391959799,1
27,7,0.0,4.333333333333333,3.857142857142857,1.8518518518518519,0,0.4444444444444444,1.8518518518518519,1.4074074074074074,1.4074074074074074,0.7777777777777778,0.4444444444444444,0.25925925925925924,0.1111111111111111,0.14814814814814814,0.037037037037037035,0.0,0.6777777777777778,0.6,0.6444444444444445,0.640625,0.578125,0.640625,1
11,4,0.0,3.909090909090909,2.75,1.7272727272727273,0,0.2727272727272727,1.7272727272727273,1.6363636363636365,1.0,0.9090909090909091,0.2727272727272727,0.18181818181818182,0.18181818181818182,0.18181818181818182,0.0,0.0,0.9375,0.9375,0.9375,0.6190476190476191,0.5238095238095238,1.0,1
49,10,0.0,4.3061224489795915,4.9,1.8571428571428572,0,0.42857142857142855,1.8571428571428572,1.5714285714285714,1.2448979591836735,0.7551020408163265,0.3673469387755102,0.22448979591836735,0.08163265306122448,0.20408163265306123,0.02040816326530612,0.0,0.8395061728395061,0.8333333333333334,0.7777777777777778,0.8407079646017699,0.7168141592920354,0.8495575221238938,1
35,12,0.0,5.0285714285714285,2.9166666666666665,2.1714285714285713,0,0.2857142857142857,2.1714285714285713,2.0,1.6571428571428573,1.0285714285714285,0.2857142857142857,0.2857142857142857,0.08571428571428572,0.14285714285714285,0.0,0.0,0.8201438848920863,0.7122302158273381,0.7985611510791367,0.8235294117647058,0.6764705882352942,0.7647058823529411,1
52,10,0.0,4.5576923076923075,5.2,2.0384615384615383,0,0.3269230769230769,2.0384615384615383,1.7692307692307692,1.3846153846153846,0.8653846153846154,0.2692307692307692,0.19230769230769232,0.07692307692307693,0.21153846153846154,0.019230769230769232,0.0,0.7486338797814208,0.6721311475409836,0.7595628415300546,0.6666666666666666,0.6046511627906976,0.751937984496124,1
47,9,0.0,4.127659574468085,5.222222222222222,1.8085106382978724,0,0.2765957446808511,1.8085106382978724,1.5319148936170213,1.148936170212766,0.7446808510638298,0.2127659574468085,0.1702127659574468,0.0851063829787234,0.10638297872340426,0.02127659574468085,0.02127659574468085,0.6164383561643836,0.6095890410958904,0.5958904109589042,0.5151515151515151,0.43434343434343436,0.5757575757575758,1
17,5,0.0,3.235294117647059,3.4,1.5294117647058822,0,0.0,1.5294117647058822,1.411764705882353,0.7647058823529411,0.5882352941176471,0.0,0.0,0.0,0.0,0.0,0.0,0.7631578947368421,0.7631578947368421,0.8157894736842105,0.6190476190476191,0.7619047619047619,0.6666666666666666,1
54,17,1.0588235294117647,5.018518518518518,3.176470588235294,2.074074074074074,0,0.4444444444444444,2.074074074074074,1.8518518518518519,1.5555555555555556,1.0,0.42592592592592593,0.3333333333333333,0.2777777777777778,0.3333333333333333,0.07407407407407407,0.037037037037037035,0.6542056074766355,0.616822429906542,0.6588785046728972,0.5796178343949044,0.5477707006369427,0.6496815286624203,1
21,6,0.0,3.238095238095238,3.5,1.6666666666666667,0,0.047619047619047616,1.6666666666666667,1.2857142857142858,0.8095238095238095,0.38095238095238093,0.047619047619047616,0.0,0.0,0.0,0.0,0.0,0.6382978723404256,0.5531914893617021,0.723404255319149,0.34615384615384615,0.3076923076923077,0.5384615384615384,1
13,4,0.0,3.8461538461538463,3.25,1.8461538461538463,0,0.38461538461538464,1.8461538461538463,1.5384615384615385,0.9230769230769231,0.5384615384615384,0.38461538461538464,0.07692307692307693,0.07692307692307693,0.38461538461538464,0.0,0.0,0.7567567567567568,0.7297297297297297,0.7567567567567568,0.5833333333333334,0.75,0.5833333333333334,1
92,9,1.2222222222222223,4.554347826086956,10.222222222222221,1.9565217391304348,1,0.45652173913043476,1.9565217391304348,1.6521739130434783,1.3369565217391304,0.7608695652173914,0.2826086956521739,0.21739130434782608,0.17391304347826086,0.3695652173913043,0.021739130434782608,0.0,0.6574923547400612,0.6024464831804281,0.7064220183486238,0.676595744680851,0.625531914893617,0.7659574468085106,1
22,6,0.0,3.5,3.6666666666666665,1.7727272727272727,0,0.0,1.7727272727272727,1.5,0.8181818181818182,0.45454545454545453,0.0,0.0,0.0,0.0,0.0,0.0,0.9272727272727272,0.8727272727272727,0.9272727272727272,0.8181818181818182,0.696969696969697,0.9393939393939394,1
66,13,1.0769230769230769,4.848484848484849,5.076923076923077,2.196969696969697,0,0.3181818181818182,2.196969696969697,1.9242424242424243,1.4242424242424243,0.9090909090909091,0.30303030303030304,0.19696969696969696,0.18181818181818182,0.30303030303030304,0.015151515151515152,0.0,0.7984189723320159,0.6996047430830039,0.7747035573122529,0.6451612903225806,0.5053763440860215,0.7311827956989247,1
47,8,0.0,4.74468085106383,5.875,2.021276595744681,0,0.48936170212765956,2.021276595744681,1.8085106382978724,1.3829787234042554,0.8297872340425532,0.3829787234042553,0.2978723404255319,0.2127659574468085,0.3829787234042553,0.02127659574468085,0.02127659574468085,0.7586206896551724,0.7413793103448276,0.7126436781609196,0.752,0.688,0.792,1
20,6,0.0,3.75,3.3333333333333335,1.8,0,0.15,1.8,1.6,1.0,0.75,0.15,0.1,0.0,0.1,0.0,0.0,0.7592592592592593,0.6296296296296297,0.7222222222222222,0.6764705882352942,0.6470588235294118,0.6764705882352942,1
184,20,1.8,4.516304347826087,9.2,1.9782608695652173,2,0.5054347826086957,1.9782608695652173,1.5434782608695652,1.2717391304347827,0.6956521739130435,0.3804347826086957,0.2717391304347826,0.10326086956521739,0.33152173913043476,0.05434782608695652,0.0,0.6490683229813664,0.639751552795031,0.6801242236024845,0.6170678336980306,0.5776805251641138,0.6608315098468271,1
53,10,0.0,4.471698113207547,5.3,1.9245283018867925,0,0.37735849056603776,1.9245283018867925,1.6981132075471699,1.320754716981132,0.8679245283018868,0.32075471698113206,0.20754716981132076,0.09433962264150944,0.20754716981132076,0.03773584905660377,0.0,0.7016574585635359,0.7016574585635359,0.7237569060773481,0.776,0.624,0.8,1
29,10,0.0,4.413793103448276,2.9,1.9310344827586208,1,0.1724137931034483,1.9310344827586208,1.8620689655172413,1.3793103448275863,0.9655172413793104,0.10344827586206896,0.06896551724137931,0.13793103448275862,0.13793103448275862,0.0,0.0,0.6020408163265306,0.5510204081632653,0.5918367346938775,0.6029411764705882,0.6176470588235294,0.6176470588235294,1
32,12,0.0,4.84375,2.6666666666666665,2.125,0,0.375,2.125,1.71875,1.6875,0.96875,0.3125,0.125,0.21875,0.21875,0.0,0.0,0.6910569105691057,0.7073170731707317,0.6910569105691057,0.6153846153846154,0.6263736263736264,0.6923076923076923,1
41,7,0.0,4.878048780487805,5.857142857142857,2.024390243902439,0,0.5121951219512195,2.024390243902439,1.7317073170731707,1.4146341463414633,0.8780487804878049,0.4146341463414634,0.2926829268292683,0.17073170731707318,0.36585365853658536,0.07317073170731707,0.024390243902439025,0.75,0.717948717948718,0.75,0.6607142857142857,0.6071428571428571,0.8035714285714286,1
23,6,1.8333333333333333,4.130434782608695,3.8333333333333335,1.7391304347826086,0,0.2608695652173913,1.7391304347826086,1.434782608695652,1.434782608695652,0.782608695652174,0.21739130434782608,0.13043478260869565,0.08695652173913043,0.13043478260869565,0.0,0.0,0.5833333333333334,0.4861111111111111,0.5,0.6326530612244898,0.5918367346938775,0.6938775510204082,1
19,6,0.0,3.9473684210526314,3.1666666666666665,1.5789473684210527,0,0.3684210526315789,1.5789473684210527,1.1578947368421053,1.4210526315789473,0.6842105263157895,0.3684210526315789,0.0,0.15789473684210525,0.15789473684210525,0.0,0.0,0.6785714285714286,0.625,0.6607142857142857,0.5675675675675675,0.43243243243243246,0.5675675675675675,1
69,12,0.0,4.536231884057971,5.75,1.9420289855072463,0,0.391304347826087,1.9420289855072463,1.6521739130434783,1.434782608695652,0.855072463768116,0.34782608695652173,0.2318840579710145,0.13043478260869565,0.2028985507246377,0.043478260869565216,0.0,0.6900826446280992,0.6239669421487604,0.7272727272727273,0.6839080459770115,0.6206896551724138,0.8045977011494253,1
92,20,3.3333333333333335,4.771739130434782,4.6,1.9891304347826086,2,0.5217391304347826,1.9891304347826086,1.6195652173913044,1.5434782608695652,0.9021739130434783,0.391304347826087,0.2608695652173913,0.21739130434782608,0.32608695652173914,0.043478260869565216,0.0,0.6812865497076024,0.6432748538011696,0.6608187134502924,0.5910931174089069,0.5101214574898786,0.5951417004048583,1
60,16,1.125,4.65,3.75,2.15,5,0.2833333333333333,2.15,1.7166666666666666,1.3833333333333333,0.7833333333333333,0.23333333333333334,0.15,0.1,0.18333333333333332,0.0,0.0,0.6759259259259259,0.6481481481481481,0.6898148148148148,0.6298701298701299,0.5324675324675324,0.7012987012987013,1
82,15,1.0666666666666667,5.402439024390244,5.466666666666667,2.3902439024390243,7,0.4634146341463415,2.3902439024390243,2.0365853658536586,1.7560975609756098,1.0,0.3902439024390244,0.35365853658536583,0.1951219512195122,0.35365853658536583,0.024390243902439025,0.0,0.7226890756302521,0.6834733893557423,0.7310924369747899,0.6715867158671587,0.5977859778597786,0.7453874538745388,2
273,26,1.7142857142857142,4.5787545787545785,10.5,1.9413919413919414,3,0.4908424908424908,1.9413919413919414,1.6373626373626373,1.36996336996337,0.7948717948717948,0.39194139194139194,0.2893772893772894,0.17216117216117216,0.3626373626373626,0.02564102564102564,0.003663003663003663,0.6573787409700722,0.6377708978328174,0.6893704850361198,0.6458635703918723,0.5892597968069666,0.7126269956458636,2
55,11,1.0909090909090908,5.290909090909091,5.0,2.2363636363636363,2,0.4909090909090909,2.2363636363636363,1.981818181818182,1.7636363636363637,1.0727272727272728,0.43636363636363634,0.36363636363636365,0.2,0.32727272727272727,0.07272727272727272,0.0,0.7361702127659574,0.7063829787234043,0.7617021276595745,0.7318435754189944,0.6703910614525139,0.8044692737430168,2
69,5,0.0,5.159420289855072,13.8,2.1884057971014492,1,0.6231884057971014,2.1884057971014492,1.7246376811594204,1.5072463768115942,0.782608695652174,0.5217391304347826,0.2318840579710145,0.2028985507246377,0.463768115942029,0.043478260869565216,0.0,0.5971731448763251,0.6042402826855123,0.6219081272084805,0.5235849056603774,0.5330188679245284,0.6650943396226415,2
63,7,1.5,4.777777777777778,9.0,2.0952380952380953,1,0.38095238095238093,2.0952380952380953,1.7301587301587302,1.5238095238095237,0.9206349206349206,0.3333333333333333,0.23809523809523808,0.19047619047619047,0.2857142857142857,0.0,0.0,0.703862660944206,0.6566523605150214,0.7081545064377682,0.6909090909090909,0.6181818181818182,0.7818181818181819,2
74,10,1.3,4.621621621621622,7.4,2.0675675675675675,2,0.4594594594594595,2.0675675675675675,1.5945945945945945,1.4594594594594594,0.7567567567567568,0.3918918918918919,0.21621621621621623,0.12162162162162163,0.28378378378378377,0.06756756756756757,0.0,0.6828358208955224,0.6529850746268657,0.6753731343283582,0.6082474226804123,0.5979381443298969,0.6701030927835051,2
186,38,1.131578947368421,5.118279569892473,4.894736842105263,2.2580645161290325,4,0.3655913978494624,2.2580645161290325,2.032258064516129,1.575268817204301,1.021505376344086,0.3387096774193548,0.27419354838709675,0.14516129032258066,0.27419354838709675,0.04838709677419355,0.005376344086021506,0.7223684210526315,0.6697368421052632,0.718421052631579,0.6883802816901409,0.5933098591549296,0.727112676056338,2
54,7,1.4285714285714286,4.555555555555555,7.714285714285714,1.9814814814814814,1,0.48148148148148145,1.9814814814814814,1.6851851851851851,1.3333333333333333,0.7777777777777778,0.3333333333333333,0.24074074074074073,0.16666666666666666,0.3333333333333333,0.05555555555555555,0.0,0.6979166666666666,0.6770833333333334,0.7083333333333334,0.6666666666666666,0.6231884057971014,0.7971014492753623,2
69,10,1.3,4.318840579710145,6.9,1.8985507246376812,0,0.18840579710144928,1.8985507246376812,1.6956521739130435,1.4057971014492754,0.8115942028985508,0.17391304347826086,0.13043478260869565,0.057971014492753624,0.08695652173913043,0.0,0.0,0.8558951965065502,0.8122270742358079,0.8253275109170306,0.80625,0.64375,0.8625,2
75,7,1.1428571428571428,4.48,10.714285714285714,1.9066666666666667,2,0.56,1.9066666666666667,1.4,1.3333333333333333,0.68,0.4266666666666667,0.30666666666666664,0.10666666666666667,0.25333333333333335,0.02666666666666667,0.0,0.6973180076628352,0.6513409961685823,0.7318007662835249,0.6524064171122995,0.6310160427807486,0.8074866310160428,2
273,54,1.0925925925925926,5.417582417582418,5.055555555555555,2.2857142857142856,10,0.5824175824175825,2.2857142857142856,1.9926739926739927,1.6373626373626373,1.021978021978022,0.4945054945054945,0.3772893772893773,0.26373626373626374,0.4652014652014652,0.040293040293040296,0.007326007326007326,0.6103678929765887,0.5844481605351171,0.6262541806020067,0.5027382256297919,0.4633077765607886,0.5640744797371303,2
88,20,0.0,4.556818181818182,4.4,1.9659090909090908,0,0.32954545454545453,1.9659090909090908,1.7272727272727273,1.4090909090909092,0.8522727272727273,0.2727272727272727,0.14772727272727273,0.17045454545454544,0.22727272727272727,0.022727272727272728,0.0,0.7275641025641025,0.717948717948718,0.7243589743589743,0.6367713004484304,0.5560538116591929,0.7085201793721974,2
118,26,1.0384615384615385,4.966101694915254,4.538461538461538,2.0847457627118646,2,0.4576271186440678,2.0847457627118646,1.7372881355932204,1.6694915254237288,0.9067796610169492,0.4322033898305085,0.2457627118644068,0.1440677966101695,0.2711864406779661,0.03389830508474576,0.0,0.75,0.7136752136752137,0.7542735042735043,0.7057142857142857,0.6114285714285714,0.7828571428571428,2
117,24,1.125,4.760683760683761,4.875,2.0683760683760686,3,0.38461538461538464,2.0683760683760686,1.811965811965812,1.452991452991453,0.8974358974358975,0.3162393162393162,0.2222222222222222,0.1794871794871795,0.26495726495726496,0.07692307692307693,0.0,0.6942528735632184,0.6551724137931034,0.6873563218390805,0.6496815286624203,0.5191082802547771,0.7038216560509554,2
45,5,1.8,4.8,9.0,1.9333333333333333,0,0.4666666666666667,1.9333333333333333,1.8,1.511111111111111,0.9777777777777777,0.26666666666666666,0.24444444444444444,0.2222222222222222,0.37777777777777777,0.022222222222222223,0.0,0.711764705882353,0.6823529411764706,0.7235294117647059,0.7096774193548387,0.6129032258064516,0.7741935483870968,2
153,33,0.0,5.0,4.636363636363637,2.1633986928104574,6,0.32679738562091504,2.1633986928104574,1.9542483660130718,1.65359477124183,0.9869281045751634,0.27450980392156865,0.1895424836601307,0.1503267973856209,0.20915032679738563,0.0196078431372549,0.0,0.7821782178217822,0.7293729372937293,0.7970297029702971,0.796420581655481,0.7024608501118568,0.8389261744966443,2
188,39,0.0,5.446808510638298,4.82051282051282,2.3138297872340425,10,0.5691489361702128,2.3138297872340425,1.9840425531914894,1.702127659574468,1.0,0.5159574468085106,0.34574468085106386,0.2393617021276596,0.3723404255319149,0.047872340425531915,0.015957446808510637,0.7117008443908324,0.6513872135102533,0.7225572979493365,0.6340694006309149,0.61198738170347,0.7429022082018928,2
112,24,0.0,4.6875,4.666666666666667,2.142857142857143,1,0.25892857142857145,2.142857142857143,1.7232142857142858,1.4642857142857142,0.7232142857142857,0.23214285714285715,0.19642857142857142,0.08928571428571429,0.1875,0.026785714285714284,0.0,0.6888888888888889,0.6296296296296297,0.725925925925926,0.6807017543859649,0.5543859649122806,0.712280701754386,2
48,15,0.0,5.395833333333333,3.2,2.2708333333333335,0,0.4791666666666667,2.2708333333333335,1.9166666666666667,1.7083333333333333,1.0,0.4791666666666667,0.25,0.22916666666666666,0.3541666666666667,0.041666666666666664,0.020833333333333332,0.6619047619047619,0.5952380952380952,0.6333333333333333,0.546583850931677,0.4658385093167702,0.6459627329192547,2
113,22,0.0,4.95575221238938,5.136363636363637,2.2389380530973453,2,0.34513274336283184,2.2389380530973453,1.8584070796460177,1.6725663716814159,0.8849557522123894,0.23893805309734514,0.19469026548672566,0.08849557522123894,0.20353982300884957,0.0,0.0,0.7399103139013453,0.6928251121076233,0.7713004484304933,0.6566265060240963,0.6265060240963856,0.8012048192771084,2
149,20,2.65,4.342281879194631,7.45,1.7718120805369129,2,0.4429530201342282,1.7718120805369129,1.476510067114094,1.3020134228187918,0.7449664429530202,0.3422818791946309,0.21476510067114093,0.18120805369127516,0.26174496644295303,0.06040268456375839,0.006711409395973154,0.7037037037037037,0.6872427983539094,0.7242798353909465,0.66189111747851,0.6045845272206304,0.7306590257879656,2
163,25,2.75,4.3128834355828225,6.52,1.852760736196319,4,0.4785276073619632,1.852760736196319,1.5030674846625767,1.098159509202454,0.6380368098159509,0.3558282208588957,0.2331288343558282,0.15950920245398773,0.3128834355828221,0.03067484662576687,0.018404907975460124,0.6883116883116883,0.6771799628942486,0.6957328385899815,0.584,0.5546666666666666,0.6933333333333334,2
45,5,1.6,4.822222222222222,9.0,2.1777777777777776,0,0.26666666666666666,2.1777777777777776,1.9333333333333333,1.5777777777777777,0.8444444444444444,0.13333333333333333,0.1111111111111111,0.022222222222222223,0.17777777777777778,0.0,0.0,0.7485380116959064,0.7251461988304093,0.7777777777777778,0.712,0.6,0.792,2
52,10,0.0,4.4423076923076925,5.2,2.076923076923077,0,0.23076923076923078,2.076923076923077,1.75,1.3461538461538463,0.75,0.19230769230769232,0.17307692307692307,0.07692307692307693,0.17307692307692307,0.0,0.0,0.5955056179775281,0.5730337078651685,0.5393258426966292,0.528,0.456,0.6,2
71,16,0.0,4.492957746478873,4.4375,1.971830985915493,0,0.22535211267605634,1.971830985915493,1.7183098591549295,1.4788732394366197,0.8591549295774648,0.19718309859154928,0.1267605633802817,0.09859154929577464,0.16901408450704225,0.0,0.0,0.6762295081967213,0.6557377049180327,0.7172131147540983,0.5562130177514792,0.5088757396449705,0.6627218934911243,2
119,24,1.0416666666666667,4.899159663865547,4.958333333333333,2.100840336134454,1,0.48739495798319327,2.100840336134454,1.781512605042017,1.5546218487394958,0.8739495798319328,0.42857142857142855,0.25210084033613445,0.16806722689075632,0.2857142857142857,0.1092436974789916,0.0,0.6796536796536796,0.6017316017316018,0.6601731601731602,0.6081871345029239,0.5029239766081871,0.6169590643274854,2
59,11,0.0,4.338983050847458,5.363636363636363,1.8983050847457628,0,0.4406779661016949,1.8983050847457628,1.6271186440677967,1.2203389830508475,0.7796610169491526,0.3389830508474576,0.2711864406779661,0.1016949152542373,0.3050847457627119,0.01694915254237288,0.0,0.7106598984771574,0.6700507614213198,0.7360406091370558,0.6956521739130435,0.6086956521739131,0.7318840579710145,2
97,15,1.2666666666666666,5.051546391752577,6.466666666666667,2.195876288659794,4,0.36082474226804123,2.195876288659794,2.0,1.5876288659793814,1.0103092783505154,0.29896907216494845,0.23711340206185566,0.20618556701030927,0.28865979381443296,0.020618556701030927,0.0,0.7186700767263428,0.7058823529411765,0.710997442455243,0.7084745762711865,0.6237288135593221,0.8,2
90,12,1.4166666666666667,4.6,7.5,2.0,2,0.35555555555555557,2.0,1.6111111111111112,1.488888888888889,0.7555555555555555,0.26666666666666666,0.14444444444444443,0.12222222222222222,0.2222222222222222,0.011111111111111112,0.0,0.7120743034055728,0.7089783281733746,0.7027863777089783,0.5965665236051502,0.45064377682403434,0.6394849785407726,2
103,18,1.2222222222222223,5.368932038834951,5.722222222222222,2.4271844660194173,7,0.3106796116504854,2.4271844660194173,2.0388349514563107,1.883495145631068,1.0388349514563107,0.30097087378640774,0.20388349514563106,0.07766990291262135,0.1262135922330097,0.009708737864077669,0.0,0.7941834451901566,0.7248322147651006,0.7986577181208053,0.7346938775510204,0.6559766763848397,0.8396501457725948,2
160,15,1.9333333333333333,5.19375,10.666666666666666,2.18125,9,0.6,2.18125,1.8875,1.56875,0.9125,0.49375,0.38125,0.25,0.3875,0.06875,0.0,0.7372372372372372,0.6966966966966966,0.7642642642642643,0.7105788423153693,0.6626746506986028,0.7864271457085829,2
101,72,1.0294117647058822,4.841584158415841,1.4027777777777777,2.1782178217821784,1,0.33663366336633666,2.1782178217821784,1.7722772277227723,1.5445544554455446,0.8811881188118812,0.32673267326732675,0.19801980198019803,0.1782178217821782,0.24752475247524752,0.0297029702970297,0.0,0.6175710594315246,0.5684754521963824,0.6330749354005168,0.5368421052631579,0.4982456140350877,0.6070175438596491,2
118,20,0.0,4.686440677966102,5.9,1.9576271186440677,0,0.3813559322033898,1.9576271186440677,1.7033898305084745,1.5677966101694916,0.8898305084745762,0.2966101694915254,0.19491525423728814,0.1016949152542373,0.1864406779661017,0.00847457627118644,0.0,0.7034482758620689,0.6758620689655173,0.7126436781609196,0.7129337539432177,0.6403785488958991,0.7728706624605678,2
114,12,1.1666666666666667,4.368421052631579,9.5,1.7280701754385965,2,0.5877192982456141,1.7280701754385965,1.4824561403508771,1.2017543859649122,0.7894736842105263,0.45614035087719296,0.3333333333333333,0.16666666666666666,0.3508771929824561,0.03508771929824561,0.0,0.6588541666666666,0.6692708333333334,0.6979166666666666,0.6962962962962963,0.6296296296296297,0.5962962962962963,2
292,60,1.3461538461538463,4.9520547945205475,4.866666666666666,2.1198630136986303,4,0.4143835616438356,2.1198630136986303,1.8527397260273972,1.5445205479452055,0.9383561643835616,0.3321917808219178,0.23972602739726026,0.1952054794520548,0.3116438356164384,0.0136986301369863,0.003424657534246575,0.6468531468531469,0.5865384615384616,0.666083916083916,0.6175771971496437,0.5166270783847982,0.6781472684085511,2
301,37,1.44,4.667774086378738,8.135135135135135,2.0398671096345513,10,0.46179401993355484,2.0398671096345513,1.7375415282392026,1.318936877076412,0.7342192691029901,0.30564784053156147,0.2059800664451827,0.17275747508305647,0.3654485049833887,0.023255813953488372,0.0033222591362126247,0.6263636363636363,0.5945454545454546,0.6136363636363636,0.5308176100628931,0.48930817610062893,0.5735849056603773,2
106,16,0.0,4.933962264150943,6.625,2.1037735849056602,1,0.49056603773584906,2.1037735849056602,1.7169811320754718,1.5754716981132075,0.9150943396226415,0.41509433962264153,0.2641509433962264,0.1792452830188679,0.3018867924528302,0.05660377358490566,0.009433962264150943,0.7270531400966184,0.6932367149758454,0.748792270531401,0.7081967213114754,0.5934426229508196,0.7377049180327869,2
293,56,1.0178571428571428,5.3583617747440275,5.232142857142857,2.2525597269624575,21,0.5563139931740614,2.2525597269624575,1.9522184300341296,1.7201365187713311,1.0,0.46757679180887374,0.3242320819112628,0.22525597269624573,0.3993174061433447,0.040955631399317405,0.0,0.727344365642238,0.7186761229314421,0.7635933806146572,0.6952479338842975,0.5971074380165289,0.7355371900826446,2
689,100,1.528301886792453,4.7677793904209,6.89,2.0130624092888243,8,0.4760522496371553,2.0130624092888243,1.7111756168359942,1.4644412191582004,0.8780841799709724,0.43541364296081275,0.2946298984034833,0.18867924528301888,0.29172714078374457,0.05805515239477504,0.001451378809869376,0.6787925696594427,0.6308049535603715,0.6865325077399381,0.5983041865394807,0.5325914149443561,0.6899841017488076,2
47,10,1.1,4.829787234042553,4.7,2.0425531914893615,0,0.5531914893617021,2.0425531914893615,1.8085106382978724,1.3404255319148937,0.7872340425531915,0.46808510638297873,0.2765957446808511,0.14893617021276595,0.40425531914893614,0.06382978723404255,0.0,0.7094972067039106,0.6480446927374302,0.6983240223463687,0.6030534351145038,0.48091603053435117,0.6641221374045801,2
81,18,0.0,4.753086419753086,4.5,2.074074074074074,0,0.3950617283950617,2.074074074074074,1.6296296296296295,1.6049382716049383,0.8888888888888888,0.37037037037037035,0.16049382716049382,0.13580246913580246,0.1728395061728395,0.012345679012345678,0.0,0.6710526315789473,0.6546052631578947,0.7335526315789473,0.7130044843049327,0.5874439461883408,0.8071748878923767,2
880,90,1.3611111111111112,4.930681818181818,9.777777777777779,2.109090909090909,24,0.4636363636363636,2.109090909090909,1.8022727272727272,1.5318181818181817,0.8431818181818181,0.3477272727272727,0.225,0.16590909090909092,0.31022727272727274,0.029545454545454545,0.004545454545454545,0.697146185206756,0.6627839254513687,0.6988934187536401,0.6554721453970762,0.5914658237850652,0.7107862504938759,2
454,74,1.3269230769230769,4.649779735682819,6.135135135135135,1.9559471365638768,5,0.4977973568281938,1.9559471365638768,1.7092511013215859,1.3480176211453745,0.8061674008810573,0.3656387665198238,0.2665198237885463,0.14317180616740088,0.33480176211453744,0.06167400881057269,0.015418502202643172,0.6772036474164134,0.6425531914893617,0.6778115501519757,0.6706181202370872,0.5639288738357324,0.6613039796782387,2
142,24,0.0,4.922535211267606,5.916666666666667,1.9788732394366197,0,0.5985915492957746,1.9788732394366197,1.732394366197183,1.4859154929577465,0.9366197183098591,0.528169014084507,0.30985915492957744,0.2323943661971831,0.323943661971831,0.11971830985915492,0.0,0.7216117216117216,0.6996336996336996,0.6721611721611722,0.6768447837150128,0.5776081424936387,0.6946564885496184,2
124,22,1.0952380952380953,4.911290322580645,5.636363636363637,2.088709677419355,2,0.4032258064516129,2.088709677419355,1.7983870967741935,1.5564516129032258,1.0,0.3709677419354839,0.31451612903225806,0.14516129032258066,0.20967741935483872,0.016129032258064516,0.0,0.6639175257731958,0.5979381443298969,0.6762886597938145,0.6038781163434903,0.5207756232686981,0.6759002770083102,2
152,25,0.0,4.6381578947368425,6.08,1.9078947368421053,2,0.3815789473684211,1.9078947368421053,1.7236842105263157,1.4342105263157894,0.8881578947368421,0.34210526315789475,0.23684210526315788,0.11842105263157894,0.18421052631578946,0.03289473684210526,0.0,0.6290909090909091,0.610909090909091,0.6272727272727273,0.5959595959595959,0.5252525252525253,0.6388888888888888,2
56,9,1.2222222222222223,4.910714285714286,6.222222222222222,2.0535714285714284,0,0.5,2.0535714285714284,1.8928571428571428,1.4821428571428572,0.9285714285714286,0.42857142857142855,0.30357142857142855,0.16071428571428573,0.375,0.08928571428571429,0.0,0.7981651376146789,0.7431192660550459,0.7660550458715596,0.7080745341614907,0.6521739130434783,0.7701863354037267,2
33,6,0.0,4.636363636363637,5.5,1.9393939393939394,0,0.3333333333333333,1.9393939393939394,1.7575757575757576,1.5151515151515151,0.9393939393939394,0.30303030303030304,0.24242424242424243,0.12121212121212122,0.15151515151515152,0.0,0.0,0.775,0.7083333333333334,0.7833333333333333,0.6781609195402298,0.4942528735632184,0.8275862068965517,2
323,37,1.608695652173913,4.374613003095975,8.72972972972973,1.9287925696594428,4,0.34674922600619196,1.9287925696594428,1.5758513931888545,1.2910216718266254,0.7089783281733746,0.25696594427244585,0.17647058823529413,0.0804953560371517,0.20123839009287925,0.01238390092879257,0.009287925696594427,0.6776859504132231,0.6519742883379247,0.7098255280073462,0.6130718954248366,0.5908496732026144,0.7150326797385621,2
155,29,1.0344827586206897,5.303225806451613,5.344827586206897,2.3225806451612905,9,0.4,2.3225806451612905,2.0709677419354837,1.7096774193548387,1.032258064516129,0.36774193548387096,0.27741935483870966,0.16774193548387098,0.2903225806451613,0.025806451612903226,0.0,0.7283763277693475,0.6600910470409712,0.7435508345978755,0.6875,0.5887096774193549,0.7520161290322581,2
186,37,1.0555555555555556,5.241935483870968,5.027027027027027,2.1451612903225805,10,0.553763440860215,2.1451612903225805,1.935483870967742,1.6559139784946237,1.0053763440860215,0.478494623655914,0.40860215053763443,0.21505376344086022,0.34408602150537637,0.026881720430107527,0.0,0.7512820512820513,0.691025641025641,0.7448717948717949,0.6632478632478632,0.5863247863247864,0.7435897435897436,2
162,30,1.0333333333333334,5.216049382716049,5.4,2.302469135802469,13,0.3765432098765432,2.302469135802469,2.04320987654321,1.691358024691358,0.9938271604938271,0.32098765432098764,0.25308641975308643,0.19135802469135801,0.2654320987654321,0.012345679012345678,0.0,0.7802359882005899,0.7035398230088495,0.7861356932153393,0.7377690802348337,0.6673189823874756,0.8414872798434442,2
74,14,1.1428571428571428,4.95945945945946,5.285714285714286,2.1486486486486487,2,0.36486486486486486,2.1486486486486487,1.9189189189189189,1.554054054054054,0.9459459459459459,0.28378378378378377,0.22972972972972974,0.17567567567567569,0.3108108108108108,0.02702702702702703,0.0,0.660958904109589,0.6506849315068494,0.6712328767123288,0.6605504587155964,0.573394495412844,0.6880733944954128,2
68,8,1.125,5.073529411764706,8.5,2.1911764705882355,2,0.5735294117647058,2.1911764705882355,1.7647058823529411,1.588235294117647,0.8970588235294118,0.47058823529411764,0.3088235294117647,0.25,0.39705882352941174,0.04411764705882353,0.0,0.677536231884058,0.6702898550724637,0.6992753623188406,0.6602870813397129,0.583732057416268,0.7177033492822966,2
923,79,1.7457627118644068,4.345612134344528,11.683544303797468,1.8450704225352113,14,0.39436619718309857,1.8450704225352113,1.5937161430119176,1.2470205850487541,0.7540628385698809,0.2914409534127844,0.218851570964247,0.1256771397616468,0.27735644637053086,0.021668472372697724,0.0010834236186348862,0.6940565118544982,0.6541084767781747,0.6982786619032153,0.6457461645746164,0.5843793584379359,0.7150162715016272,2
1034,102,1.5348837209302326,4.570599613152805,10.137254901960784,1.9497098646034816,9,0.4458413926499033,1.9497098646034816,1.6740812379110253,1.3500967117988394,0.811411992263056,0.3607350096711799,0.26595744680851063,0.13733075435203096,0.2978723404255319,0.0183752417794971,0.0019342359767891683,0.6934604904632152,0.6550408719346049,0.7005449591280654,0.6373710355368742,0.5743217424531907,0.7092090179594956,2
47,10,0.0,4.361702127659575,4.7,1.7659574468085106,0,0.44680851063829785,1.7659574468085106,1.425531914893617,1.4893617021276595,0.7659574468085106,0.3829787234042553,0.1276595744680851,0.23404255319148937,0.2978723404255319,0.0,0.0,0.8726114649681529,0.8662420382165605,0.8853503184713376,0.7889908256880734,0.6697247706422018,0.8165137614678899,2
109,20,1.105263157894737,4.706422018348624,5.45,2.1376146788990824,3,0.23853211009174313,2.1376146788990824,1.8623853211009174,1.5504587155963303,0.8440366972477065,0.1834862385321101,0.11009174311926606,0.10091743119266056,0.1559633027522936,0.009174311926605505,0.0,0.7425,0.67,0.7625,0.6585365853658537,0.6062717770034843,0.7630662020905923,2
206,28,2.6206896551724137,4.359223300970874,7.357142857142857,1.8058252427184467,0,0.4077669902912621,1.8058252427184467,1.4951456310679612,1.3883495145631068,0.7378640776699029,0.32524271844660196,0.21844660194174756,0.1262135922330097,0.21844660194174756,0.0,0.0,0.6257309941520468,0.5994152046783626,0.6228070175438597,0.5875251509054326,0.4688128772635815,0.6378269617706237,2
233,51,1.1136363636363635,4.605150214592275,4.568627450980392,1.9656652360515021,2,0.40772532188841204,1.9656652360515021,1.742489270386266,1.351931330472103,0.8626609442060086,0.3261802575107296,0.21030042918454936,0.11158798283261803,0.22317596566523606,0.030042918454935622,0.008583690987124463,0.7144563918757467,0.6726403823178017,0.6989247311827957,0.6389351081530782,0.6156405990016639,0.7753743760399334,2
293,34,2.1666666666666665,4.689419795221843,8.617647058823529,2.0102389078498293,4,0.4197952218430034,2.0102389078498293,1.78839590443686,1.4129692832764504,0.825938566552901,0.3447098976109215,0.2525597269624573,0.15017064846416384,0.25597269624573377,0.020477815699658702,0.0,0.6611111111111111,0.6481481481481481,0.6546296296296297,0.6238881829733164,0.576874205844981,0.6810673443456162,2
429,30,1.3333333333333333,4.699300699300699,14.3,1.951048951048951,4,0.5477855477855478,1.951048951048951,1.6573426573426573,1.4172494172494172,0.7948717948717948,0.4219114219114219,0.289044289044289,0.1258741258741259,0.3333333333333333,0.006993006993006993,0.0,0.7104761904761905,0.686984126984127,0.7180952380952381,0.6887125220458554,0.6190476190476191,0.7504409171075838,2
54,6,0.0,4.87037037037037,9.0,2.037037037037037,0,0.5185185185185185,2.037037037037037,1.8518518518518519,1.462962962962963,1.0925925925925926,0.46296296296296297,0.2777777777777778,0.24074074074074073,0.37037037037037035,0.14814814814814814,0.0,0.5645933014354066,0.5311004784688995,0.5980861244019139,0.49032258064516127,0.432258064516129,0.5612903225806452,2
184,55,0.0,4.201086956521739,3.3454545454545452,1.7934782608695652,1,0.29347826086956524,1.7934782608695652,1.5706521739130435,1.1358695652173914,0.7445652173913043,0.27717391304347827,0.22282608695652173,0.11956521739130435,0.1358695652173913,0.005434782608695652,0.0,0.6843910806174958,0.5951972555746141,0.6689536878216124,0.6081424936386769,0.5241730279898219,0.6641221374045801,2
112,16,1.1875,4.866071428571429,7.0,2.0714285714285716,0,0.45535714285714285,2.0714285714285716,1.8035714285714286,1.5178571428571428,0.9196428571428571,0.39285714285714285,0.3125,0.1875,0.32142857142857145,0.026785714285714284,0.0,0.5939675174013921,0.5730858468677494,0.6218097447795824,0.5125786163522013,0.48427672955974843,0.6352201257861635,2
71,16,1.0625,5.845070422535211,4.4375,2.464788732394366,2,0.5492957746478874,2.464788732394366,2.1971830985915495,1.971830985915493,1.2112676056338028,0.4507042253521127,0.3380281690140845,0.2676056338028169,0.4788732394366197,0.028169014084507043,0.0,0.6529411764705882,0.6470588235294118,0.6852941176470588,0.6377358490566037,0.5471698113207547,0.6867924528301886,2
163,17,4.0,4.674846625766871,9.588235294117647,2.1717791411042944,7,0.3128834355828221,2.1717791411042944,1.6748466257668713,1.5337423312883436,0.7914110429447853,0.294478527607362,0.18404907975460122,0.10429447852760736,0.1656441717791411,0.0,0.0,0.695142378559464,0.6499162479061976,0.7001675041876047,0.6073903002309469,0.6235565819861432,0.8106235565819861,2
50,7,0.0,5.88,7.142857142857143,2.38,4,0.72,2.38,2.18,1.78,1.24,0.58,0.4,0.36,0.62,0.12,0.02,0.6983471074380165,0.6446280991735537,0.7107438016528925,0.6526315789473685,0.6157894736842106,0.7473684210526316,2
120,20,1.375,4.741666666666666,6.0,1.925,1,0.4083333333333333,1.925,1.6666666666666667,1.6166666666666667,0.9416666666666667,0.2833333333333333,0.20833333333333334,0.11666666666666667,0.2833333333333333,0.016666666666666666,0.0,0.6817155756207675,0.6704288939051919,0.6681715575620768,0.67601246105919,0.5856697819314641,0.7009345794392523,2
125,19,1.263157894736842,4.568,6.578947368421052,1.928,0,0.448,1.928,1.712,1.368,0.816,0.256,0.136,0.144,0.352,0.048,0.008,0.6485260770975056,0.6439909297052154,0.691609977324263,0.6270096463022508,0.5627009646302251,0.6495176848874598,2
176,40,1.2352941176470589,4.107954545454546,4.4,1.8522727272727273,5,0.2215909090909091,1.8522727272727273,1.6534090909090908,1.1420454545454546,0.7159090909090909,0.18181818181818182,0.09659090909090909,0.06818181818181818,0.125,0.017045454545454544,0.0,0.6642201834862386,0.6073394495412844,0.6458715596330276,0.5967302452316077,0.5722070844686649,0.6103542234332425,2
139,23,1.3571428571428572,4.748201438848921,6.043478260869565,1.9496402877697843,2,0.5323741007194245,1.9496402877697843,1.683453237410072,1.4028776978417266,0.8776978417266187,0.4244604316546763,0.2949640287769784,0.19424460431654678,0.3597122302158273,0.050359712230215826,0.014388489208633094,0.6400778210116731,0.6050583657587548,0.6264591439688716,0.5929919137466307,0.522911051212938,0.6684636118598383,2
1050,97,1.65625,4.897142857142857,10.824742268041238,2.12,29,0.5228571428571429,2.12,1.7638095238095237,1.4980952380952381,0.8666666666666667,0.4247619047619048,0.2695238095238095,0.22,0.37238095238095237,0.030476190476190476,0.0,0.6721512770137524,0.6318762278978389,0.6900785854616895,0.613107119095143,0.5588822355289421,0.7015968063872255,2
169,31,0.0,5.053254437869822,5.451612903225806,2.171597633136095,7,0.5325443786982249,2.171597633136095,1.863905325443787,1.514792899408284,0.8757396449704142,0.4319526627218935,0.27218934911242604,0.1834319526627219,0.3727810650887574,0.047337278106508875,0.011834319526627219,0.6832844574780058,0.6334310850439883,0.6686217008797654,0.6254901960784314,0.5686274509803921,0.692156862745098,2
284,56,1.4390243902439024,4.676056338028169,5.071428571428571,2.0528169014084505,7,0.38380281690140844,2.0528169014084505,1.7394366197183098,1.4647887323943662,0.8274647887323944,0.31690140845070425,0.23591549295774647,0.15140845070422534,0.22887323943661972,0.017605633802816902,0.0035211267605633804,0.6605769230769231,0.6432692307692308,0.6778846153846154,0.6816976127320955,0.6140583554376657,0.7718832891246684,2
91,16,0.0,5.175824175824176,5.6875,2.1758241758241756,1,0.5274725274725275,2.1758241758241756,1.9120879120879122,1.6483516483516483,0.989010989010989,0.43956043956043955,0.32967032967032966,0.18681318681318682,0.3626373626373626,0.054945054945054944,0.01098901098901099,0.792,0.792,0.8506666666666667,0.7419354838709677,0.6666666666666666,0.8028673835125448,2
92,8,1.4444444444444444,4.728260869565218,11.5,2.010869565217391,2,0.5760869565217391,2.010869565217391,1.4673913043478262,1.5543478260869565,0.7717391304347826,0.5543478260869565,0.358695652173913,0.14130434782608695,0.2608695652173913,0.021739130434782608,0.0,0.5659824046920822,0.5747800586510264,0.5865102639296188,0.5425101214574899,0.5546558704453441,0.631578947368421,2
87,17,1.0625,4.724137931034483,5.117647058823529,2.0919540229885056,0,0.3563218390804598,2.0919540229885056,1.7701149425287357,1.4022988505747127,0.8390804597701149,0.3448275862068966,0.26436781609195403,0.1724137931034483,0.25287356321839083,0.04597701149425287,0.011494252873563218,0.7102803738317757,0.6292834890965732,0.6853582554517134,0.5974025974025974,0.5064935064935064,0.6666666666666666,2
162,35,1.25,5.203703703703703,4.628571428571429,2.037037037037037,2,0.6111111111111112,2.037037037037037,1.845679012345679,1.5617283950617284,0.9691358024691358,0.4567901234567901,0.345679012345679,0.24691358024691357,0.35802469135802467,0.030864197530864196,0.0,0.6725403817914831,0.6461086637298091,0.6989720998531571,0.5777351247600768,0.5758157389635317,0.6641074856046065,2
93,17,0.0,4.645161290322581,5.470588235294118,2.0,0,0.21505376344086022,2.0,1.924731182795699,1.4946236559139785,1.064516129032258,0.21505376344086022,0.17204301075268819,0.053763440860215055,0.10752688172043011,0.0,0.0,0.606508875739645,0.5266272189349113,0.6035502958579881,0.6938775510204082,0.5102040816326531,0.689795918367347,2
102,18,0.0,4.617647058823529,5.666666666666667,1.9803921568627452,4,0.37254901960784315,1.9803921568627452,1.6372549019607843,1.4705882352941178,0.7843137254901961,0.30392156862745096,0.24509803921568626,0.19607843137254902,0.27450980392156865,0.00980392156862745,0.0,0.7225274725274725,0.7197802197802198,0.7527472527472527,0.6926070038910506,0.6108949416342413,0.7937743190661478,2
87,19,1.1578947368421053,5.0344827586206895,4.578947368421052,2.103448275862069,2,0.5172413793103449,2.103448275862069,1.8045977011494252,1.632183908045977,0.9770114942528736,0.42528735632183906,0.3218390804597701,0.19540229885057472,0.3103448275862069,0.04597701149425287,0.0,0.7031700288184438,0.7060518731988472,0.7262247838616714,0.6653696498054474,0.6498054474708171,0.7392996108949417,2
88,16,1.1818181818181819,4.318181818181818,5.5,1.9659090909090908,0,0.20454545454545456,1.9659090909090908,1.7045454545454546,1.3295454545454546,0.8068181818181818,0.19318181818181818,0.125,0.09090909090909091,0.17045454545454544,0.0,0.0,0.6952054794520548,0.6575342465753424,0.7226027397260274,0.6568627450980392,0.4950980392156863,0.7058823529411765,2
80,12,2.0,4.175,6.666666666666667,1.8875,0,0.3,1.8875,1.675,1.1375,0.7125,0.225,0.1625,0.1,0.2625,0.025,0.0,0.6324110671936759,0.6007905138339921,0.6245059288537549,0.622093023255814,0.5872093023255814,0.7325581395348837,2
219,43,1.131578947368421,5.041095890410959,5.093023255813954,2.1689497716894977,9,0.4063926940639269,2.1689497716894977,1.8995433789954337,1.6255707762557077,0.954337899543379,0.3698630136986301,0.2511415525114155,0.1278538812785388,0.2465753424657534,0.0319634703196347,0.0,0.6852272727272727,0.6545454545454545,0.6875,0.6280487804878049,0.5914634146341463,0.7042682926829268,2
42,5,1.2,4.261904761904762,8.4,1.880952380952381,0,0.40476190476190477,1.880952380952381,1.619047619047619,1.0952380952380953,0.6428571428571429,0.19047619047619047,0.16666666666666666,0.14285714285714285,0.3333333333333333,0.047619047619047616,0.047619047619047616,0.674074074074074,0.6222222222222222,0.6666666666666666,0.6129032258064516,0.5053763440860215,0.7096774193548387,2
301,62,0.0,4.7574750830564785,4.854838709677419,2.0631229235880397,3,0.3654485049833887,2.0631229235880397,1.7674418604651163,1.4651162790697674,0.8970099667774086,0.3222591362126246,0.2558139534883721,0.11627906976744186,0.1760797342192691,0.006644518272425249,0.0,0.6940966010733453,0.6288014311270125,0.7075134168157424,0.6455223880597015,0.5758706467661692,0.7089552238805971,2
37,7,0.0,4.756756756756757,5.285714285714286,2.108108108108108,0,0.40540540540540543,2.108108108108108,1.7837837837837838,1.4864864864864864,0.7567567567567568,0.2702702702702703,0.13513513513513514,0.21621621621621623,0.2702702702702703,0.0,0.0,0.7101449275362319,0.6304347826086957,0.7028985507246377,0.62,0.46,0.74,2
141,26,1.0416666666666667,4.617021276595745,5.423076923076923,1.9148936170212767,1,0.40425531914893614,1.9148936170212767,1.7375886524822695,1.425531914893617,0.8936170212765957,0.375886524822695,0.28368794326241137,0.1773049645390071,0.24113475177304963,0.014184397163120567,0.0,0.6106719367588933,0.5869565217391305,0.6146245059288538,0.5373961218836565,0.5069252077562327,0.6232686980609419,2
141,35,1.1470588235294117,4.801418439716312,4.0285714285714285,2.0141843971631204,5,0.44680851063829785,2.0141843971631204,1.8156028368794326,1.3829787234042554,0.8865248226950354,0.3120567375886525,0.2127659574468085,0.2198581560283688,0.3049645390070922,0.014184397163120567,0.0,0.701688555347092,0.6435272045028143,0.6923076923076923,0.6323907455012854,0.5681233933161953,0.712082262210797,2
231,45,1.1904761904761905,4.9004329004329,5.133333333333334,2.168831168831169,4,0.38095238095238093,2.168831168831169,1.9264069264069263,1.5108225108225108,0.9783549783549783,0.341991341991342,0.23376623376623376,0.20346320346320346,0.30303030303030304,0.017316017316017316,0.0,0.7290249433106576,0.6882086167800453,0.7596371882086168,0.6962025316455697,0.5775316455696202,0.7515822784810127,2
255,52,1.0769230769230769,4.870588235294117,4.903846153846154,2.0941176470588236,4,0.396078431372549,2.0941176470588236,1.8549019607843138,1.4549019607843137,0.9137254901960784,0.3333333333333333,0.25098039215686274,0.1568627450980392,0.27058823529411763,0.03529411764705882,0.00784313725490196,0.6768603465851172,0.6269113149847095,0.6748216106014271,0.6166666666666667,0.5361111111111111,0.6625,2
97,9,1.2222222222222223,4.711340206185567,10.777777777777779,1.9484536082474226,3,0.4948453608247423,1.9484536082474226,1.6288659793814433,1.4948453608247423,0.8144329896907216,0.3402061855670103,0.23711340206185566,0.12371134020618557,0.2268041237113402,0.041237113402061855,0.0,0.7478991596638656,0.7591036414565826,0.6946778711484594,0.8449612403100775,0.627906976744186,0.6085271317829457,2
82,9,1.2222222222222223,4.658536585365853,9.11111111111111,2.024390243902439,3,0.3780487804878049,2.024390243902439,1.670731707317073,1.451219512195122,0.7560975609756098,0.3048780487804878,0.1951219512195122,0.10975609756097561,0.21951219512195122,0.012195121951219513,0.012195121951219513,0.7133333333333334,0.6666666666666666,0.7633333333333333,0.680365296803653,0.593607305936073,0.7899543378995434,2
159,24,0.0,4.672955974842767,6.625,2.0251572327044025,1,0.37735849056603776,2.0251572327044025,1.7924528301886793,1.3962264150943395,0.8742138364779874,0.34591194968553457,0.23270440251572327,0.1069182389937107,0.22012578616352202,0.012578616352201259,0.0,0.7108433734939759,0.6764199655765921,0.6884681583476764,0.6009501187648456,0.5843230403800475,0.6033254156769596,2
113,23,1.0434782608695652,4.716814159292035,4.913043478260869,2.079646017699115,0,0.25663716814159293,2.079646017699115,1.9380530973451326,1.4690265486725664,0.9646017699115044,0.21238938053097345,0.19469026548672566,0.13274336283185842,0.18584070796460178,0.0,0.0,0.7060240963855422,0.6289156626506024,0.7012048192771084,0.67003367003367,0.5892255892255892,0.7609427609427609,2
142,28,1.0714285714285714,4.915492957746479,5.071428571428571,2.028169014084507,2,0.5492957746478874,2.028169014084507,1.7535211267605635,1.5070422535211268,0.9154929577464789,0.5140845070422535,0.3732394366197183,0.20422535211267606,0.2676056338028169,0.07746478873239436,0.0,0.7230215827338129,0.6960431654676259,0.7482014388489209,0.6763285024154589,0.6183574879227053,0.7318840579710145,2
71,16,1.125,3.7464788732394365,4.4375,1.6901408450704225,0,0.16901408450704225,1.6901408450704225,1.5070422535211268,0.9859154929577465,0.6901408450704225,0.16901408450704225,0.16901408450704225,0.056338028169014086,0.056338028169014086,0.0,0.0,0.515625,0.4895833333333333,0.5520833333333334,0.5,0.4322033898305085,0.5,2
211,23,1.3529411764705883,4.654028436018957,9.173913043478262,1.962085308056872,4,0.4881516587677725,1.962085308056872,1.7014218009478672,1.3838862559241707,0.8199052132701422,0.33649289099526064,0.22274881516587677,0.17535545023696683,0.3127962085308057,0.018957345971563982,0.004739336492890996,0.680628272251309,0.6531413612565445,0.6819371727748691,0.5879120879120879,0.5586080586080586,0.6593406593406593,2
78,4,1.5,4.717948717948718,19.5,2.08974358974359,0,0.3974358974358974,2.08974358974359,1.7692307692307692,1.4102564102564104,0.6923076923076923,0.32051282051282054,0.2564102564102564,0.10256410256410256,0.24358974358974358,0.0,0.0,0.7202797202797203,0.6853146853146853,0.7622377622377622,0.6274509803921569,0.5980392156862745,0.7745098039215687,2
528,48,1.564102564102564,4.507575757575758,11.0,1.9318181818181819,6,0.4128787878787879,1.9318181818181819,1.643939393939394,1.4015151515151516,0.8125,0.3068181818181818,0.22537878787878787,0.1268939393939394,0.26515151515151514,0.011363636363636364,0.0,0.7184782608695652,0.6983695652173914,0.725,0.681783243658724,0.6256725595695619,0.7340507302075326,3
444,43,1.4722222222222223,4.626126126126126,10.325581395348838,1.9594594594594594,9,0.43018018018018017,1.9594594594594594,1.7072072072072073,1.3873873873873874,0.8445945945945946,0.35585585585585583,0.2635135135135135,0.17792792792792791,0.2882882882882883,0.013513513513513514,0.0,0.7377972465581978,0.7127659574468085,0.7603254067584481,0.6625980819529207,0.6094158674803836,0.8020924149956408,3
116,23,1.1304347826086956,4.5344827586206895,5.043478260869565,1.956896551724138,2,0.3706896551724138,1.956896551724138,1.6810344827586208,1.4310344827586208,0.7931034482758621,0.3017241379310345,0.20689655172413793,0.09482758620689655,0.23275862068965517,0.008620689655172414,0.0,0.6997518610421837,0.6650124069478908,0.7096774193548387,0.7127659574468085,0.6170212765957447,0.74822695035461,3
236,18,1.8333333333333333,4.843220338983051,13.11111111111111,2.080508474576271,3,0.5127118644067796,2.080508474576271,1.7542372881355932,1.4618644067796611,0.8686440677966102,0.4025423728813559,0.25,0.22033898305084745,0.3728813559322034,0.05508474576271186,0.00423728813559322,0.6733111849390919,0.64562569213732,0.6755260243632336,0.6274509803921569,0.5806938159879337,0.6862745098039216,3
811,71,2.4047619047619047,4.784217016029593,11.422535211267606,2.029593094944513,18,0.436498150431566,2.029593094944513,1.7669543773119605,1.4414303329223181,0.8446362515413071,0.3366214549938348,0.2379778051787916,0.16769420468557336,0.31689272503082616,0.036991368680641186,0.01972872996300863,0.6502153030804902,0.6157668102020537,0.6667770785028155,0.6048125867653864,0.5539102267468764,0.7394724664507173,3
206,22,1.4285714285714286,4.563106796116505,9.363636363636363,1.941747572815534,3,0.4320388349514563,1.941747572815534,1.6407766990291262,1.3883495145631068,0.8300970873786407,0.35436893203883496,0.25728155339805825,0.13592233009708737,0.24271844660194175,0.019417475728155338,0.0,0.7206085753803596,0.6915629322268326,0.7206085753803596,0.6600790513833992,0.6027667984189723,0.7608695652173914,3
996,88,1.542857142857143,4.718875502008032,11.318181818181818,1.9799196787148594,26,0.5120481927710844,1.9799196787148594,1.714859437751004,1.3694779116465863,0.8554216867469879,0.4036144578313253,0.3002008032128514,0.20783132530120482,0.37248995983935745,0.04116465863453815,0.0,0.6795115332428765,0.6491180461329715,0.6949796472184532,0.5947663551401869,0.5435514018691588,0.6762616822429907,3
122,13,1.25,4.491803278688525,9.384615384615385,1.9180327868852458,2,0.3770491803278688,1.9180327868852458,1.5655737704918034,1.4426229508196722,0.7704918032786885,0.29508196721311475,0.1885245901639344,0.09836065573770492,0.21311475409836064,0.01639344262295082,0.00819672131147541,0.624113475177305,0.5981087470449172,0.6690307328605201,0.5752508361204013,0.5551839464882943,0.7023411371237458,3
547,76,1.3725490196078431,4.738574040219379,7.197368421052632,2.012797074954296,8,0.5173674588665448,2.012797074954296,1.6928702010968921,1.3747714808043876,0.8519195612431444,0.4296160877513711,0.30895795246800734,0.20292504570383912,0.3711151736745887,0.029250457038391225,0.009140767824497258,0.6420482520925652,0.5992122107336287,0.6484490398818316,0.546875,0.49728260869565216,0.6460597826086957,3
440,43,1.4,4.581818181818182,10.232558139534884,2.0,5,0.3431818181818182,2.0,1.6863636363636363,1.481818181818182,0.775,0.28863636363636364,0.20454545454545456,0.1,0.21363636363636362,0.00909090909090909,0.0,0.688295165394402,0.6469465648854962,0.7137404580152672,0.6312056737588653,0.6223404255319149,0.7313829787234043,3
239,56,1.2173913043478262,4.640167364016737,4.267857142857143,1.9079497907949792,3,0.4686192468619247,1.9079497907949792,1.5439330543933054,1.4518828451882846,0.8744769874476988,0.38493723849372385,0.24267782426778242,0.200836820083682,0.2928870292887029,0.029288702928870293,0.0,0.6601382488479263,0.630184331797235,0.673963133640553,0.5917065390749602,0.5247208931419458,0.645933014354067,3
559,65,1.3396226415094339,4.799642218246869,8.6,2.037567084078712,3,0.46511627906976744,2.037567084078712,1.6815742397137745,1.4740608228980323,0.8407871198568873,0.3935599284436494,0.25402504472271914,0.1449016100178891,0.3023255813953488,0.026833631484794274,0.0017889087656529517,0.7027922385234264,0.6767628963558922,0.7236157122574538,0.665158371040724,0.5959922430510666,0.7343244990303813,3
173,11,1.3636363636363635,4.543352601156069,15.727272727272727,1.930635838150289,0,0.43352601156069365,1.930635838150289,1.5317919075144508,1.4219653179190752,0.7514450867052023,0.31213872832369943,0.21965317919075145,0.11560693641618497,0.24855491329479767,0.005780346820809248,0.0,0.7046204620462047,0.6914191419141914,0.7343234323432343,0.6861826697892272,0.6440281030444965,0.7775175644028103,3
189,19,1.3125,4.671957671957672,9.947368421052632,1.8941798941798942,8,0.4708994708994709,1.8941798941798942,1.6455026455026456,1.4497354497354498,0.8518518518518519,0.36507936507936506,0.30158730158730157,0.14814814814814814,0.19047619047619047,0.026455026455026454,0.005291005291005291,0.7612156295224313,0.7698986975397974,0.7496382054992764,0.808,0.718,0.676,3
677,83,1.4827586206896552,4.559822747415066,8.156626506024097,1.951255539143279,14,0.48005908419497784,1.951255539143279,1.6632200886262924,1.3234859675036927,0.7488921713441654,0.3810930576070901,0.2378138847858198,0.172821270310192,0.35302806499261447,0.047267355982274745,0.008862629246676515,0.6783625730994152,0.6512113617376776,0.6892230576441103,0.5954198473282443,0.5443335290663535,0.6664709336465061,3
430,38,2.269230769230769,4.511627906976744,11.31578947368421,1.8604651162790697,7,0.3883720930232558,1.8604651162790697,1.6023255813953488,1.4,0.858139534883721,0.34418604651162793,0.24186046511627907,0.16046511627906976,0.2441860465116279,0.011627906976744186,0.002325581395348837,0.6352159468438539,0.6239202657807309,0.6697674418604651,0.6097105508870215,0.5443510737628384,0.6498599439775911,3
414,30,1.8518518518518519,4.753623188405797,13.8,2.004830917874396,15,0.5507246376811594,2.004830917874396,1.7222222222222223,1.3816425120772946,0.8043478260869565,0.3671497584541063,0.24154589371980675,0.1642512077294686,0.391304347826087,0.028985507246376812,0.0024154589371980675,0.6858435681965094,0.6645119586296057,0.691661279896574,0.6056587091069849,0.5526083112290009,0.6374889478337754,3
196,18,2.0,4.505102040816326,10.88888888888889,1.9846938775510203,4,0.39285714285714285,1.9846938775510203,1.6377551020408163,1.3061224489795917,0.75,0.3163265306122449,0.19387755102040816,0.11734693877551021,0.25,0.015306122448979591,0.00510204081632653,0.7683284457478006,0.7258064516129032,0.8269794721407625,0.7692307692307693,0.6964656964656964,0.8503118503118503,3
162,32,1.03125,4.709876543209877,5.0625,1.9567901234567902,1,0.4506172839506173,1.9567901234567902,1.7901234567901234,1.4012345679012346,0.9320987654320988,0.43209876543209874,0.35802469135802467,0.1728395061728395,0.30864197530864196,0.018518518518518517,0.0,0.559463986599665,0.5360134003350083,0.5527638190954773,0.46403712296983757,0.43155452436194897,0.5452436194895591,3
437,30,1.5517241379310345,4.613272311212815,14.566666666666666,1.965675057208238,2,0.43478260869565216,1.965675057208238,1.677345537757437,1.366132723112128,0.8032036613272311,0.34553775743707094,0.2334096109839817,0.15560640732265446,0.2791762013729977,0.020594965675057208,0.0,0.6936305732484076,0.6643312101910828,0.7178343949044586,0.6492007104795737,0.5923623445825933,0.7060390763765542,3
90,13,1.0769230769230769,5.022222222222222,6.923076923076923,2.1,4,0.35555555555555557,2.1,1.9222222222222223,1.6777777777777778,1.0,0.3333333333333333,0.2222222222222222,0.16666666666666666,0.23333333333333334,0.044444444444444446,0.011111111111111112,0.7972222222222223,0.7555555555555555,0.7833333333333333,0.7164179104477612,0.6529850746268657,0.8059701492537313,3
629,86,1.6181818181818182,5.074721780604134,7.313953488372093,2.0317965023847377,12,0.6565977742448331,2.0317965023847377,1.7329093799682036,1.5357710651828298,0.9475357710651828,0.5421303656597775,0.3688394276629571,0.27503974562798095,0.46740858505564387,0.09062003179650238,0.0,0.6832810047095761,0.6487441130298273,0.7032967032967034,0.6397482957524908,0.5700052438384898,0.7215521761929733,3
365,50,1.5142857142857142,4.657534246575342,7.3,1.9808219178082191,3,0.4575342465753425,1.9808219178082191,1.7068493150684931,1.3808219178082193,0.8136986301369863,0.4054794520547945,0.273972602739726,0.13972602739726028,0.29315068493150687,0.038356164383561646,0.005479452054794521,0.6674174174174174,0.6343843843843844,0.6561561561561562,0.5943983402489627,0.5560165975103735,0.6493775933609959,3
126,12,1.3333333333333333,4.682539682539683,10.5,2.0,2,0.42063492063492064,2.0,1.7063492063492063,1.507936507936508,0.8571428571428571,0.3492063492063492,0.2777777777777778,0.15873015873015872,0.25396825396825395,0.023809523809523808,0.007936507936507936,0.7527352297592997,0.7067833698030634,0.7768052516411379,0.7191358024691358,0.6327160493827161,0.8179012345679012,3
3572,201,2.203125,4.759518477043673,17.771144278606965,2.008118701007839,94,0.5302351623740201,2.008118701007839,1.7082866741321387,1.4048152295632699,0.8197088465845465,0.3838185890257559,0.2609182530795073,0.18896976483762598,0.3784994400895857,0.04731243001119821,0.0033594624860022394,0.6667166416791604,0.6395052473763119,0.6889805097451275,0.6172381835032438,0.5792400370713624,0.6942642364329111,3
410,49,1.5333333333333334,4.548780487804878,8.36734693877551,1.9658536585365853,9,0.4292682926829268,1.9658536585365853,1.6609756097560975,1.3390243902439025,0.7731707317073171,0.32682926829268294,0.22195121951219512,0.16829268292682928,0.32195121951219513,0.01707317073170732,0.0,0.6692094313453537,0.6497919556171984,0.6775312066574203,0.6154598825831703,0.5949119373776908,0.6839530332681018,3
101,72,1.0294117647058822,4.841584158415841,1.4027777777777777,2.1782178217821784,1,0.33663366336633666,2.1782178217821784,1.7722772277227723,1.5445544554455446,0.8811881188118812,0.32673267326732675,0.19801980198019803,0.1782178217821782,0.24752475247524752,0.0297029702970297,0.0,0.6175710594315246,0.5684754521963824,0.6330749354005168,0.5368421052631579,0.4982456140350877,0.6070175438596491,3
152,13,1.3846153846153846,4.605263157894737,11.692307692307692,1.980263157894737,1,0.4868421052631579,1.980263157894737,1.638157894736842,1.388157894736842,0.7039473684210527,0.3684210526315789,0.23684210526315788,0.11842105263157894,0.29605263157894735,0.019736842105263157,0.0,0.7564102564102564,0.6941391941391941,0.7673992673992674,0.673469387755102,0.625,0.7780612244897959,3
318,73,1.2075471698113207,5.19811320754717,4.3561643835616435,2.1823899371069184,15,0.5566037735849056,2.1823899371069184,1.8867924528301887,1.6352201257861636,1.0031446540880504,0.46540880503144655,0.3584905660377358,0.27672955974842767,0.3742138364779874,0.03459119496855346,0.006289308176100629,0.6946334089191232,0.6780045351473923,0.7195767195767195,0.6686807653575025,0.5991943605236657,0.6978851963746223,3
94,8,1.375,4.712765957446808,11.75,1.9893617021276595,1,0.3829787234042553,1.9893617021276595,1.7234042553191489,1.553191489361702,0.9042553191489362,0.35106382978723405,0.22340425531914893,0.0851063829787234,0.1276595744680851,0.05319148936170213,0.0,0.8357348703170029,0.7579250720461095,0.7867435158501441,0.7857142857142857,0.6904761904761905,0.7182539682539683,3
183,15,1.6153846153846154,4.3224043715847,12.2,1.8852459016393444,2,0.366120218579235,1.8852459016393444,1.6010928961748634,1.2677595628415301,0.7213114754098361,0.2459016393442623,0.15846994535519127,0.12021857923497267,0.26229508196721313,0.02185792349726776,0.0,0.6638935108153078,0.6422628951747088,0.6988352745424293,0.6788321167883211,0.6009732360097324,0.7566909975669099,3
482,42,1.6666666666666667,4.70746887966805,11.476190476190476,2.0311203319502074,8,0.3796680497925311,2.0311203319502074,1.7240663900414939,1.5228215767634854,0.8900414937759336,0.3153526970954357,0.1887966804979253,0.17634854771784234,0.26141078838174275,0.01867219917012448,0.004149377593360996,0.7220662549129703,0.6979225154407637,0.7366647950589557,0.6754250386398764,0.6027820710973725,0.8137557959814529,3
442,31,1.9166666666666667,4.606334841628959,14.258064516129032,1.9570135746606334,8,0.4841628959276018,1.9570135746606334,1.6809954751131222,1.3484162895927603,0.7352941176470589,0.3190045248868778,0.21945701357466063,0.1515837104072398,0.34841628959276016,0.029411764705882353,0.0,0.6824494949494949,0.6837121212121212,0.7083333333333334,0.6116504854368932,0.5975286849073257,0.6902030008826125,3
701,56,1.8837209302325582,4.349500713266762,12.517857142857142,1.9115549215406562,8,0.43081312410841655,1.9115549215406562,1.5763195435092725,1.2624821683309557,0.7047075606276747,0.28815977175463625,0.1768901569186876,0.10841654778887304,0.2781740370898716,0.008559201141226819,0.0014265335235378032,0.7190721649484536,0.6911512027491409,0.7448453608247423,0.6825790452572845,0.6367017978921264,0.782393056416615,3
268,19,1.1578947368421053,4.585820895522388,14.105263157894736,2.003731343283582,3,0.45149253731343286,2.003731343283582,1.6305970149253732,1.376865671641791,0.7574626865671642,0.3843283582089552,0.2574626865671642,0.1417910447761194,0.2835820895522388,0.04477611940298507,0.0,0.7355718782791185,0.6715634837355718,0.74501573976915,0.620384047267356,0.5731166912850812,0.723781388478582,3
246,27,1.2,4.548780487804878,9.11111111111111,1.991869918699187,1,0.2967479674796748,1.991869918699187,1.6544715447154472,1.4796747967479675,0.8252032520325203,0.24796747967479674,0.12195121951219512,0.0975609756097561,0.17073170731707318,0.008130081300813009,0.0,0.7118055555555556,0.6863425925925926,0.7094907407407407,0.6715927750410509,0.6091954022988506,0.8243021346469622,3
430,52,1.5945945945945945,4.513953488372093,8.26923076923077,1.972093023255814,2,0.37209302325581395,1.972093023255814,1.6348837209302325,1.3581395348837209,0.7767441860465116,0.3209302325581395,0.23953488372093024,0.1372093023255814,0.24186046511627907,0.023255813953488372,0.0,0.7057256990679095,0.689081225033289,0.7443408788282291,0.6519699812382739,0.6228893058161351,0.7467166979362101,3
680,84,1.3770491803278688,4.633823529411765,8.095238095238095,2.038235294117647,10,0.38382352941176473,2.038235294117647,1.738235294117647,1.4191176470588236,0.8382352941176471,0.32794117647058824,0.2338235294117647,0.12352941176470589,0.21764705882352942,0.022058823529411766,0.0,0.6865063187933144,0.6530778638401957,0.7093355075417855,0.6373439273552781,0.5998864926220204,0.7321225879682179,3
706,74,2.142857142857143,4.569405099150142,9.54054054054054,1.998583569405099,18,0.4518413597733711,1.998583569405099,1.6713881019830028,1.3371104815864023,0.7691218130311614,0.330028328611898,0.18555240793201133,0.14022662889518414,0.311614730878187,0.0226628895184136,0.0,0.7138855542216886,0.6798719487795118,0.7414965986394558,0.6655386350817822,0.6153412295544275,0.7631133671742809,3
974,96,1.4337349397590362,4.643737166324435,10.145833333333334,1.9856262833675564,10,0.46098562628336753,1.9856262833675564,1.713552361396304,1.3480492813141685,0.8080082135523614,0.33880903490759756,0.24435318275154005,0.14681724845995894,0.33059548254620125,0.028747433264887063,0.004106776180698152,0.6839275608375778,0.6522354272778721,0.698641765704584,0.6414280109846999,0.5817967830521773,0.6877206747744213,3
324,35,1.7037037037037037,4.518518518518518,9.257142857142858,1.8611111111111112,1,0.5123456790123457,1.8611111111111112,1.5524691358024691,1.382716049382716,0.8209876543209876,0.37962962962962965,0.25,0.13580246913580246,0.3148148148148148,0.046296296296296294,0.0,0.6940760389036251,0.6480990274093722,0.7011494252873564,0.6382978723404256,0.6107634543178974,0.7058823529411765,3
134,14,1.8461538461538463,5.007462686567164,9.571428571428571,2.1791044776119404,6,0.44776119402985076,2.1791044776119404,1.7388059701492538,1.671641791044776,0.9477611940298507,0.3880597014925373,0.26119402985074625,0.14925373134328357,0.23880597014925373,0.029850746268656716,0.0,0.6685288640595903,0.6610800744878957,0.6834264432029795,0.6178660049627791,0.6178660049627791,0.7022332506203474,3
92,8,1.375,4.554347826086956,11.5,2.010869565217391,0,0.34782608695652173,2.010869565217391,1.7173913043478262,1.2934782608695652,0.7391304347826086,0.29347826086956524,0.25,0.09782608695652174,0.2717391304347826,0.0,0.0,0.7015873015873015,0.638095238095238,0.7365079365079366,0.6839622641509434,0.6037735849056604,0.8113207547169812,3
384,35,1.96,4.807291666666667,10.971428571428572,2.0729166666666665,7,0.546875,2.0729166666666665,1.7395833333333333,1.3932291666666667,0.7864583333333334,0.4296875,0.2708333333333333,0.19791666666666666,0.4427083333333333,0.044270833333333336,0.0,0.673778389538885,0.653819683413627,0.686166551961459,0.5856873822975518,0.568738229755179,0.6770244821092278,3
440,75,1.2033898305084745,4.761363636363637,5.866666666666666,2.0386363636363636,7,0.43863636363636366,2.0386363636363636,1.75,1.4704545454545455,0.8636363636363636,0.3568181818181818,0.2545454545454545,0.19090909090909092,0.27045454545454545,0.015909090909090907,0.0022727272727272726,0.7104622871046229,0.6715328467153284,0.7214111922141119,0.6314907872696818,0.592964824120603,0.7236180904522613,3
139,13,0.0,4.741007194244604,10.692307692307692,2.1007194244604315,5,0.45323741007194246,2.1007194244604315,1.6618705035971224,1.5107913669064748,0.8057553956834532,0.3669064748201439,0.2589928057553957,0.1366906474820144,0.26618705035971224,0.050359712230215826,0.007194244604316547,0.6854368932038835,0.6174757281553398,0.6912621359223301,0.6064690026954178,0.5444743935309974,0.6792452830188679,3
186,25,1.4090909090909092,4.903225806451613,7.44,2.086021505376344,4,0.4032258064516129,2.086021505376344,1.8279569892473118,1.5913978494623655,0.9032258064516129,0.34946236559139787,0.25806451612903225,0.15053763440860216,0.26344086021505375,0.026881720430107527,0.0,0.6671289875173371,0.6338418862690708,0.6976421636615812,0.6547169811320754,0.5358490566037736,0.7037735849056603,3
475,70,1.3409090909090908,4.903157894736842,6.785714285714286,2.014736842105263,3,0.5642105263157895,2.014736842105263,1.68,1.52,0.8989473684210526,0.4631578947368421,0.3031578947368421,0.2231578947368421,0.37684210526315787,0.04631578947368421,0.0,0.6702878870179251,0.6463878326996197,0.690385659967409,0.6192930780559647,0.5898379970544919,0.7017673048600883,3
152,18,1.2777777777777777,4.605263157894737,8.444444444444445,1.986842105263158,1,0.3815789473684211,1.986842105263158,1.6907894736842106,1.4210526315789473,0.7960526315789473,0.28289473684210525,0.17105263157894737,0.09868421052631579,0.2236842105263158,0.019736842105263157,0.0,0.696526508226691,0.6672760511882998,0.7111517367458866,0.6060606060606061,0.5227272727272727,0.6742424242424242,3
566,59,1.7659574468085106,4.6855123674911665,9.59322033898305,2.0335689045936394,7,0.45936395759717313,2.0335689045936394,1.704946996466431,1.431095406360424,0.8286219081272085,0.3621908127208481,0.25265017667844525,0.18374558303886926,0.3321554770318021,0.06007067137809187,0.0017667844522968198,0.6732625482625483,0.6365830115830116,0.6776061776061776,0.5923949299533022,0.5483655770513676,0.6784523015343562,3
394,129,1.305084745762712,4.418781725888325,3.054263565891473,1.8756345177664975,3,0.38578680203045684,1.8756345177664975,1.6598984771573604,1.3020304568527918,0.8299492385786802,0.33756345177664976,0.26649746192893403,0.08375634517766498,0.24619289340101522,0.015228426395939087,0.0,0.7118391660461653,0.6731198808637379,0.7252419955323902,0.6592592592592592,0.5894179894179894,0.7291005291005291,3
311,36,1.5517241379310345,4.704180064308682,8.63888888888889,2.0257234726688105,1,0.43086816720257237,2.0257234726688105,1.7331189710610932,1.3344051446945338,0.7877813504823151,0.24758842443729903,0.1864951768488746,0.1382636655948553,0.3536977491961415,0.01607717041800643,0.0,0.6451048951048951,0.6136363636363636,0.6905594405594405,0.6070133010882709,0.5671100362756953,0.7267230955259976,3
205,14,1.5714285714285714,4.917073170731707,14.642857142857142,2.1170731707317074,4,0.5073170731707317,2.1170731707317074,1.7804878048780488,1.4682926829268292,0.824390243902439,0.3804878048780488,0.22439024390243903,0.21951219512195122,0.33658536585365856,0.03902439024390244,0.0,0.7042606516290727,0.6604010025062657,0.6917293233082706,0.6564625850340136,0.6071428571428571,0.7125850340136054,3
475,46,1.441860465116279,4.3578947368421055,10.326086956521738,1.8778947368421053,15,0.39789473684210525,1.8778947368421053,1.5747368421052632,1.2210526315789474,0.728421052631579,0.24421052631578946,0.1705263157894737,0.11368421052631579,0.2673684210526316,0.029473684210526315,0.0,0.6786843769765971,0.6419987349778621,0.7001897533206831,0.6224862888482633,0.5776965265082267,0.720292504570384,3
701,70,1.6440677966101696,4.510699001426533,10.014285714285714,1.9472182596291012,7,0.3594864479315264,1.9472182596291012,1.6818830242510698,1.398002853067047,0.8302425106990015,0.29529243937232524,0.21968616262482168,0.1398002853067047,0.23537803138373753,0.011412268188302425,0.0014265335235378032,0.6895424836601307,0.6458333333333334,0.7009803921568627,0.625,0.5576036866359447,0.728110599078341,3
385,39,1.65625,4.44935064935065,9.871794871794872,1.948051948051948,7,0.37402597402597404,1.948051948051948,1.6545454545454545,1.348051948051948,0.7740259740259741,0.2753246753246753,0.18961038961038962,0.11948051948051948,0.24935064935064935,0.005194805194805195,0.0,0.7207890743550834,0.7109256449165402,0.7169954476479514,0.71397616468039,0.6511375947995667,0.7161430119176598,3
725,73,1.6166666666666667,4.693793103448276,9.931506849315069,2.016551724137931,12,0.47586206896551725,2.016551724137931,1.776551724137931,1.376551724137931,0.8262068965517242,0.3503448275862069,0.22620689655172413,0.15586206896551724,0.32413793103448274,0.028965517241379312,0.001379310344827586,0.7174484052532834,0.6709193245778612,0.7309568480300188,0.6132711249351996,0.589942975635044,0.7304302747537584,3
859,163,1.503875968992248,4.528521536670548,5.269938650306749,1.928987194412107,3,0.42724097788125726,1.928987194412107,1.6449359720605354,1.3527357392316648,0.7881257275902211,0.36437718277066355,0.27357392316647267,0.12339930151338765,0.22351571594877764,0.010477299185098952,0.0,0.6778256546237985,0.6353994033808419,0.6774941995359629,0.6207695873898934,0.5600370885489105,0.6824292999536393,3
317,35,2.1,4.5362776025236595,9.057142857142857,1.864353312302839,4,0.4384858044164038,1.864353312302839,1.5962145110410095,1.384858044164038,0.8454258675078864,0.3627760252365931,0.2807570977917981,0.17981072555205047,0.277602523659306,0.028391167192429023,0.0,0.6735241502683363,0.6681574239713775,0.684257602862254,0.6057571964956195,0.5844806007509387,0.7008760951188986,3
234,28,1.380952380952381,4.782051282051282,8.357142857142858,2.051282051282051,10,0.5555555555555556,2.051282051282051,1.7222222222222223,1.3547008547008548,0.7991452991452992,0.44871794871794873,0.28205128205128205,0.1794871794871795,0.43162393162393164,0.038461538461538464,0.004273504273504274,0.6305587229190421,0.621436716077537,0.661345496009122,0.5391849529780565,0.5172413793103449,0.6065830721003135,3
698,50,2.323529411764706,4.425501432664756,13.96,1.8767908309455588,11,0.36962750716332377,1.8767908309455588,1.5787965616045845,1.2951289398280803,0.7148997134670487,0.24785100286532952,0.166189111747851,0.12893982808022922,0.24355300859598855,0.0071633237822349575,0.0028653295128939827,0.6848561759729273,0.6412859560067682,0.7009306260575296,0.6370820668693009,0.6121580547112462,0.7550151975683891,3
242,43,1.4482758620689655,4.652892561983471,5.627906976744186,2.0330578512396693,5,0.47107438016528924,2.0330578512396693,1.7396694214876034,1.3471074380165289,0.8099173553719008,0.384297520661157,0.22727272727272727,0.16942148760330578,0.3305785123966942,0.05371900826446281,0.0,0.7004555808656037,0.6526195899772209,0.7027334851936219,0.6465927099841522,0.5832012678288431,0.7179080824088748,3
500,63,2.5652173913043477,4.396,7.936507936507937,1.932,3,0.362,1.932,1.664,1.272,0.786,0.284,0.198,0.132,0.242,0.018,0.0,0.7007826610475617,0.7001806140878989,0.7110174593618303,0.6355710549258936,0.6216216216216216,0.7227550130775937,3
578,86,1.3962264150943395,4.505190311418685,6.72093023255814,1.9411764705882353,9,0.42560553633217996,1.9411764705882353,1.6747404844290656,1.301038062283737,0.7820069204152249,0.3217993079584775,0.21280276816608998,0.16262975778546712,0.29411764705882354,0.020761245674740483,0.0017301038062283738,0.693074240159442,0.6661684105630294,0.7289486796213254,0.6211267605633802,0.5753521126760563,0.6971830985915493,3
110,11,1.4545454545454546,5.363636363636363,10.0,2.2,9,0.7,2.2,1.8636363636363635,1.690909090909091,1.009090909090909,0.5363636363636364,0.39090909090909093,0.2545454545454545,0.509090909090909,0.06363636363636363,0.0,0.7272727272727273,0.7209302325581395,0.7378435517970402,0.7394957983193278,0.6638655462184874,0.8487394957983193,3
287,27,2.15,5.390243902439025,10.62962962962963,2.240418118466899,8,0.47038327526132406,2.240418118466899,1.9721254355400697,1.8083623693379791,1.0418118466898956,0.41114982578397213,0.30662020905923343,0.1916376306620209,0.29965156794425085,0.0313588850174216,0.006968641114982578,0.6730462519936204,0.6523125996810207,0.6921850079744817,0.5912863070539419,0.5425311203319502,0.6680497925311203,3
83,11,1.0909090909090908,4.120481927710843,7.545454545454546,1.9397590361445782,0,0.1566265060240964,1.9397590361445782,1.6144578313253013,1.2409638554216869,0.6987951807228916,0.13253012048192772,0.0963855421686747,0.03614457831325301,0.07228915662650602,0.0,0.0,0.8410852713178295,0.8023255813953488,0.8604651162790697,0.7873563218390804,0.6896551724137931,0.8620689655172413,3
141,14,1.2857142857142858,4.49645390070922,10.071428571428571,1.9432624113475176,0,0.40425531914893614,1.9432624113475176,1.6099290780141844,1.3475177304964538,0.7730496453900709,0.2624113475177305,0.19858156028368795,0.1276595744680851,0.3120567375886525,0.0,0.0,0.7046843177189409,0.7107942973523421,0.7678207739307535,0.7183908045977011,0.6350574712643678,0.7729885057471264,3
258,17,1.8666666666666667,4.538759689922481,15.176470588235293,1.9573643410852712,2,0.37209302325581395,1.9573643410852712,1.6550387596899225,1.4108527131782946,0.7906976744186046,0.2868217054263566,0.20930232558139536,0.1124031007751938,0.21705426356589147,0.011627906976744186,0.0,0.7227722772277227,0.682068206820682,0.735973597359736,0.6398763523956723,0.5950540958268934,0.7465224111282844,3
1101,57,2.5714285714285716,4.6348773841961854,19.31578947368421,2.041780199818347,20,0.4405086285195277,2.041780199818347,1.7620345140781108,1.3496821071752951,0.771117166212534,0.298819255222525,0.21798365122615804,0.15258855585831063,0.3387829246139873,0.018165304268846504,0.0018165304268846503,0.7156147850138295,0.6688458637163691,0.7379934624088509,0.6693491952414276,0.6095171448565431,0.768369489153254,3
86,6,1.8333333333333333,4.441860465116279,14.333333333333334,1.930232558139535,1,0.3953488372093023,1.930232558139535,1.6511627906976745,1.3604651162790697,0.7790697674418605,0.3023255813953488,0.26744186046511625,0.1511627906976744,0.29069767441860467,0.011627906976744186,0.0,0.6701030927835051,0.6288659793814433,0.6769759450171822,0.594059405940594,0.5841584158415841,0.6633663366336634,3
207,17,1.2352941176470589,4.951690821256038,12.176470588235293,2.0628019323671496,8,0.5169082125603864,2.0628019323671496,1.7971014492753623,1.5458937198067633,0.9033816425120773,0.4106280193236715,0.30917874396135264,0.12077294685990338,0.2318840579710145,0.04830917874396135,0.0,0.8161764705882353,0.7683823529411765,0.7781862745098039,0.8846787479406919,0.7182866556836903,0.7594728171334432,3
202,16,1.4375,4.851485148514851,12.625,2.0742574257425743,4,0.42574257425742573,2.0742574257425743,1.7227722772277227,1.603960396039604,0.8564356435643564,0.36633663366336633,0.24752475247524752,0.11386138613861387,0.22277227722772278,0.01485148514851485,0.009900990099009901,0.7535483870967742,0.7058064516129032,0.7780645161290323,0.7263157894736842,0.6649122807017543,0.8385964912280702,3
127,15,1.2,4.669291338582677,8.466666666666667,2.094488188976378,4,0.3228346456692913,2.094488188976378,1.7559055118110236,1.4960629921259843,0.8740157480314961,0.2992125984251969,0.2283464566929134,0.10236220472440945,0.1889763779527559,0.015748031496062992,0.0,0.7483731019522777,0.6919739696312365,0.7809110629067245,0.7303030303030303,0.6515151515151515,0.8121212121212121,3
446,54,1.4489795918367347,4.497757847533633,8.25925925925926,1.9327354260089686,5,0.35201793721973096,1.9327354260089686,1.7264573991031391,1.3408071748878925,0.8340807174887892,0.289237668161435,0.21300448430493274,0.1031390134529148,0.19282511210762332,0.017937219730941704,0.0,0.6658031088082902,0.6314766839378239,0.6800518134715026,0.5909926470588235,0.5496323529411765,0.6378676470588235,3
452,42,1.8,4.767699115044247,10.761904761904763,2.0287610619469025,10,0.4446902654867257,2.0287610619469025,1.7345132743362832,1.5066371681415929,0.915929203539823,0.40707964601769914,0.3141592920353982,0.21238938053097345,0.29867256637168144,0.02654867256637168,0.0022123893805309734,0.7522176227084565,0.703725606150207,0.7575399172087522,0.660961695191524,0.6136919315403423,0.810920945395273,3
268,29,1.5294117647058822,4.593283582089552,9.241379310344827,2.0223880597014925,5,0.3805970149253731,2.0223880597014925,1.7164179104477613,1.3097014925373134,0.7649253731343284,0.2873134328358209,0.208955223880597,0.1455223880597015,0.26119402985074625,0.03731343283582089,0.0037313432835820895,0.6913451511991658,0.6319082377476538,0.7101147028154328,0.62882096069869,0.5560407569141194,0.6666666666666666,3
704,54,1.7391304347826086,4.651988636363637,13.037037037037036,1.953125,12,0.5,1.953125,1.6903409090909092,1.3423295454545454,0.7954545454545454,0.3181818181818182,0.23011363636363635,0.15625,0.3877840909090909,0.06392045454545454,0.0014204545454545455,0.6835095965530749,0.6592244418331374,0.6940853897375636,0.6155519303969549,0.5595432300163132,0.686242523110386,3
774,150,1.7739130434782608,4.4366925064599485,5.16,1.8979328165374676,3,0.41472868217054265,1.8979328165374676,1.6705426356589148,1.2609819121447028,0.7906976744186046,0.3397932816537468,0.2622739018087855,0.13953488372093023,0.2248062015503876,0.00516795865633075,0.0,0.6566767830045523,0.5887708649468892,0.6559180576631259,0.6528077753779697,0.5269978401727862,0.6744060475161987,3
262,21,3.142857142857143,4.633587786259542,12.476190476190476,1.9885496183206106,11,0.44274809160305345,1.9885496183206106,1.6488549618320612,1.3854961832061068,0.7786259541984732,0.366412213740458,0.24427480916030533,0.14885496183206107,0.26717557251908397,0.019083969465648856,0.0,0.7374599786552828,0.7331910352187834,0.743863393810032,0.6439393939393939,0.5984848484848485,0.7242424242424242,3
262,21,3.142857142857143,4.633587786259542,12.476190476190476,1.9885496183206106,11,0.44274809160305345,1.9885496183206106,1.6488549618320612,1.3854961832061068,0.7786259541984732,0.366412213740458,0.24427480916030533,0.14885496183206107,0.26717557251908397,0.019083969465648856,0.0,0.7374599786552828,0.7331910352187834,0.743863393810032,0.6439393939393939,0.5984848484848485,0.7242424242424242,3
507,112,1.2653061224489797,4.556213017751479,4.526785714285714,1.9368836291913214,5,0.4319526627218935,1.9368836291913214,1.6074950690335306,1.3629191321499015,0.7692307692307693,0.32741617357001973,0.23076923076923078,0.16962524654832348,0.3076923076923077,0.03155818540433925,0.011834319526627219,0.6010044642857143,0.5703125,0.59375,0.552858261550509,0.5207517619420516,0.6162881754111198,3
