@relation readability_cebuano_features_embeddings-weka.filters.unsupervised.attribute.Remove-R19-792

@attribute word_count numeric
@attribute sentence_count numeric
@attribute phrase_count_per_sentence numeric
@attribute average_word_len numeric
@attribute average_sentence_len numeric
@attribute average_syllable_count numeric
@attribute polysyll_count numeric
@attribute consonant_cluster_density numeric
@attribute v_density numeric
@attribute cv_density numeric
@attribute vc_density numeric
@attribute cvc_density numeric
@attribute vcc_density numeric
@attribute cvcc_density numeric
@attribute ccvc_density numeric
@attribute ccv_density numeric
@attribute ccvcc_density numeric
@attribute ccvccc_density numeric
@attribute class {1,2,3}

@data
78,20,0,4.628205,3.9,2.128205,0,0.269231,2.128205,1.833333,1.410256,0.820513,0.230769,0.128205,0.115385,0.179487,0,0,1
40,7,0,5.4,5.714286,2.05,2,0.65,2.05,1.8,1.825,1.05,0.65,0.375,0.15,0.225,0.15,0.025,1
35,12,0,4.628571,2.916667,2.114286,0,0.228571,2.114286,1.771429,1.542857,0.971429,0.228571,0.2,0.114286,0.142857,0,0,1
66,12,0,4.80303,5.5,2.121212,1,0.287879,2.121212,1.772727,1.651515,1,0.227273,0.227273,0.19697,0.242424,0,0,1
17,4,0,4.529412,4.25,1.882353,0,0.411765,1.882353,1.588235,1.470588,0.823529,0.411765,0.235294,0.176471,0.235294,0,0,1
73,21,1.047619,5.178082,3.47619,2.30137,3,0.356164,2.30137,1.986301,1.739726,0.986301,0.315068,0.246575,0.205479,0.30137,0.013699,0,1
16,5,0,4.625,3.2,2.0625,0,0.5,2.0625,1.6875,1.375,0.875,0.5,0.1875,0.25,0.4375,0.125,0,1
43,9,0,4.395349,4.777778,1.953488,0,0.302326,1.953488,1.511628,1.418605,0.72093,0.232558,0.186047,0.093023,0.139535,0.023256,0,1
32,5,0,4.9375,6.4,2.15625,2,0.40625,2.15625,1.75,1.6875,0.9375,0.34375,0.25,0.0625,0.1875,0.03125,0,1
67,12,0,4.268657,5.583333,1.940299,0,0.313433,1.940299,1.552239,1.298507,0.761194,0.238806,0.179104,0.164179,0.19403,0.014925,0,1
104,23,1.136364,4.865385,4.521739,2.067308,2,0.423077,2.067308,1.711538,1.644231,0.951923,0.365385,0.25,0.173077,0.278846,0,0,1
62,12,0,4.709677,5.166667,2.129032,1,0.33871,2.129032,1.725806,1.580645,0.822581,0.322581,0.177419,0.096774,0.193548,0.048387,0,1
97,8,1.125,4.350515,12.125,1.85567,0,0.443299,1.85567,1.608247,1.237113,0.804124,0.319588,0.216495,0.134021,0.278351,0,0,1
80,9,0,4.8875,8.888889,2.075,4,0.5125,2.075,1.8,1.4,0.85,0.35,0.2875,0.2375,0.45,0.0375,0,1
33,8,0,4.878788,4.125,1.939394,0,0.515152,1.939394,1.575758,1.757576,0.969697,0.424242,0.181818,0.151515,0.242424,0,0,1
18,5,0,4.277778,3.6,2,0,0.277778,2,1.777778,1.166667,0.777778,0.277778,0.111111,0.111111,0.222222,0,0,1
18,6,0,4.944444,3,2.333333,0,0.333333,2.333333,1.888889,1.5,0.833333,0.333333,0.111111,0.111111,0.333333,0.111111,0.055556,1
46,9,1.222222,5.23913,5.111111,2.152174,2,0.456522,2.152174,2,1.630435,1.043478,0.413043,0.326087,0.195652,0.23913,0.065217,0.065217,1
53,7,1.285714,4.358491,7.571429,2,0,0.358491,2,1.528302,1.264151,0.622642,0.245283,0.113208,0.075472,0.188679,0,0,1
39,7,0,4.205128,5.571429,1.897436,0,0.25641,1.897436,1.692308,1.25641,0.846154,0.230769,0.153846,0.102564,0.153846,0,0,1
23,6,0,3.391304,3.833333,1.608696,0,0,1.608696,1.304348,1,0.608696,0,0,0,0,0,0,1
21,5,1.4,4,4.2,1.666667,0,0.333333,1.666667,1.428571,1.190476,0.714286,0.190476,0.190476,0.142857,0.333333,0,0,1
46,9,0,4.021739,5.111111,1.891304,0,0.195652,1.891304,1.673913,1.021739,0.630435,0.173913,0.086957,0.043478,0.108696,0,0,1
21,6,0,4.428571,3.5,2,0,0.380952,2,1.571429,1.428571,0.809524,0.380952,0.095238,0.095238,0.238095,0.047619,0,1
17,4,0,3.764706,4.25,1.823529,0,0.176471,1.823529,1.470588,1.117647,0.647059,0.176471,0.058824,0.058824,0.117647,0,0,1
67,17,1.055556,5.402985,3.941176,2.238806,0,0.537313,2.238806,2.044776,1.686567,1.104478,0.432836,0.343284,0.298507,0.462687,0.044776,0,1
43,10,0,4.674419,4.3,2.046512,0,0.465116,2.046512,1.674419,1.418605,0.813953,0.325581,0.255814,0.116279,0.27907,0.046512,0.023256,1
25,7,0,3.88,3.571429,1.68,0,0.32,1.68,1.36,1.16,0.76,0.24,0.16,0.24,0.28,0,0,1
17,5,0,3.764706,3.4,1.647059,0,0.352941,1.647059,1.352941,1.058824,0.705882,0.294118,0.058824,0.176471,0.235294,0,0,1
23,6,0,3.913043,3.833333,1.695652,0,0.173913,1.695652,1.521739,1.217391,0.782609,0.173913,0.043478,0.043478,0.043478,0,0,1
227,15,1.6,4.889868,15.133333,2.0837,9,0.449339,2.0837,1.814978,1.502203,0.85022,0.325991,0.242291,0.185022,0.343612,0.022026,0,1
119,18,0,4.428571,6.611111,1.87395,1,0.386555,1.87395,1.613445,1.369748,0.798319,0.277311,0.201681,0.151261,0.260504,0,0,1
94,9,1.222222,4.531915,10.444444,1.946809,1,0.446809,1.946809,1.648936,1.329787,0.755319,0.276596,0.212766,0.170213,0.361702,0.021277,0,1
60,11,1.083333,4.65,5.454545,2.116667,2,0.333333,2.116667,1.683333,1.516667,0.783333,0.233333,0.116667,0.133333,0.266667,0,0,1
23,8,0,3.869565,2.875,1.478261,0,0.521739,1.478261,1.173913,1.173913,0.73913,0.521739,0.434783,0.043478,0.086957,0,0,1
48,16,0,4.75,3,1.9375,0,0.583333,1.9375,1.5,1.604167,0.833333,0.583333,0.4375,0.041667,0.104167,0.020833,0,1
72,13,0,4.513889,5.538462,2.013889,0,0.375,2.013889,1.611111,1.472222,0.708333,0.319444,0.180556,0.097222,0.208333,0.027778,0,1
49,10,1.1,3.979592,4.9,1.836735,0,0.244898,1.836735,1.244898,1.346939,0.612245,0.204082,0.061224,0.040816,0.081633,0,0,1
23,7,0,4.130435,3.285714,1.73913,0,0.26087,1.73913,1.521739,1.347826,0.73913,0.26087,0.130435,0.086957,0.086957,0,0,1
19,6,0,3.947368,3.166667,1.736842,0,0.263158,1.736842,1.473684,1.157895,0.736842,0.263158,0.157895,0.105263,0.157895,0,0,1
6,3,0,4,2,1.666667,0,0.333333,1.666667,1.666667,1,1,0.333333,0.333333,0.333333,0.333333,0,0,1
8,2,0,3.25,4,1.5,0,0.25,1.5,1.25,0.75,0.5,0.25,0,0,0,0,0,1
20,5,0,3.05,4,1.55,0,0.05,1.55,1.4,0.5,0.45,0.05,0,0,0,0,0,1
39,13,0,5.153846,3,2.282051,0,0.333333,2.282051,1.923077,1.692308,0.897436,0.333333,0.282051,0.076923,0.179487,0,0,1
23,6,0,4,3.833333,1.782609,0,0.26087,1.782609,1.73913,1,0.782609,0.217391,0.173913,0.086957,0.217391,0,0,1
11,3,0,3.636364,3.666667,1.545455,0,0.363636,1.545455,1.363636,0.909091,0.727273,0.363636,0.181818,0.181818,0.181818,0,0,1
18,6,0,3.333333,3,1.555556,0,0.222222,1.555556,1.333333,0.777778,0.555556,0.222222,0,0,0,0,0,1
21,6,0,3.761905,3.5,1.666667,0,0.095238,1.666667,1.333333,1.142857,0.47619,0.095238,0,0,0,0,0,1
22,6,0,5.181818,3.666667,2.090909,0,0.636364,2.090909,1.727273,1.727273,1.181818,0.636364,0.363636,0.363636,0.409091,0.181818,0,1
138,16,1.066667,4.789855,8.625,2.072464,2,0.456522,2.072464,1.782609,1.449275,0.891304,0.376812,0.26087,0.15942,0.318841,0.050725,0,1
52,10,1.1,5.211538,5.2,2.25,0,0.480769,2.25,2,1.634615,0.980769,0.423077,0.384615,0.192308,0.346154,0.019231,0,1
47,8,0,4.234043,5.875,1.87234,0,0.361702,1.87234,1.638298,1.170213,0.787234,0.319149,0.234043,0.170213,0.234043,0,0,1
75,21,0,4.84,3.571429,2.08,1,0.466667,2.08,1.773333,1.52,0.893333,0.4,0.226667,0.146667,0.32,0.026667,0,1
40,14,0,4.45,2.857143,1.875,0,0.475,1.875,1.575,1.325,0.825,0.4,0.25,0.25,0.35,0.05,0,1
41,11,0,4.731707,3.727273,1.853659,0,0.463415,1.853659,1.682927,1.585366,0.97561,0.439024,0.268293,0.195122,0.243902,0,0,1
21,6,0,4.904762,3.5,2.142857,0,0.095238,2.142857,1.952381,1.809524,0.904762,0.095238,0.095238,0,0,0,0,1
30,6,0,3.166667,5,1.566667,0,0.033333,1.566667,1.5,0.633333,0.566667,0.033333,0,0,0,0,0,1
139,18,1.647059,4.906475,7.722222,2.093525,1,0.510791,2.093525,1.741007,1.532374,0.877698,0.489209,0.302158,0.215827,0.302158,0.057554,0.007194,1
21,6,0,4.809524,3.5,2.238095,0,0.285714,2.238095,1.952381,1.52381,0.952381,0.285714,0.285714,0.142857,0.238095,0,0,1
12,5,1.2,3.5,2.4,1.666667,0,0.166667,1.666667,1.5,0.833333,0.666667,0.166667,0,0,0,0,0,1
100,10,4.545455,3.59,10,1.45,0,0.4,1.45,1.1,1.08,0.55,0.26,0.14,0.07,0.19,0,0,1
51,10,0,4.823529,5.1,2.039216,0,0.431373,2.039216,1.745098,1.490196,0.921569,0.372549,0.294118,0.176471,0.333333,0.019608,0,1
36,11,1.181818,4.583333,3.272727,1.916667,0,0.472222,1.916667,1.555556,1.444444,0.833333,0.388889,0.194444,0.138889,0.277778,0.027778,0,1
16,4,0,3.5625,4,1.625,0,0.125,1.625,1.375,0.9375,0.5625,0.0625,0,0,0.0625,0,0,1
10,4,0,4.1,2.5,1.6,0,0.5,1.6,1.5,1.1,1,0.5,0.4,0.3,0.3,0,0,1
27,8,0,3.37037,3.375,1.555556,0,0.222222,1.555556,1.296296,0.814815,0.555556,0.222222,0.037037,0.037037,0.037037,0,0,1
35,12,0,4.714286,2.916667,1.971429,0,0.571429,1.971429,1.657143,1.257143,0.742857,0.485714,0.314286,0.2,0.485714,0.114286,0.057143,1
23,8,0,5.304348,2.875,2.26087,1,0.478261,2.26087,1.782609,1.695652,0.782609,0.434783,0.217391,0.086957,0.347826,0.086957,0,1
43,8,1.25,4.186047,5.375,1.767442,0,0.395349,1.767442,1.44186,1.302326,0.72093,0.209302,0.116279,0.186047,0.27907,0,0,1
44,10,0,5.181818,4.4,2.386364,1,0.295455,2.386364,2.022727,1.75,1.022727,0.272727,0.227273,0.113636,0.159091,0,0,1
23,6,0,3.869565,3.833333,1.695652,0,0.391304,1.695652,1.26087,1.086957,0.565217,0.26087,0.086957,0.086957,0.26087,0,0,1
53,16,1.125,5.698113,3.3125,2.45283,3,0.377358,2.45283,2.264151,1.981132,1.245283,0.377358,0.320755,0.207547,0.283019,0,0,1
83,13,1.076923,4.144578,6.384615,1.831325,0,0.301205,1.831325,1.566265,1.168675,0.698795,0.277108,0.13253,0.108434,0.192771,0.012048,0,1
45,5,1.4,4.644444,9,1.822222,1,0.4,1.822222,1.622222,1.511111,0.911111,0.311111,0.222222,0.177778,0.288889,0.044444,0,1
54,16,1.0625,5.166667,3.375,2.240741,1,0.462963,2.240741,1.833333,1.722222,0.962963,0.37037,0.240741,0.203704,0.277778,0.055556,0,1
41,12,0,4.878049,3.416667,2.146341,0,0.243902,2.146341,1.95122,1.560976,0.95122,0.146341,0.121951,0.097561,0.170732,0,0,1
44,10,0,4.681818,4.4,2.136364,1,0.340909,2.136364,1.909091,1.340909,0.840909,0.318182,0.227273,0.068182,0.227273,0,0,1
128,9,6.2,3.554688,14.222222,1.476563,0,0.335938,1.476563,1.296875,0.90625,0.578125,0.21875,0.148438,0.085938,0.1875,0.015625,0,1
47,10,1.1,5.617021,4.7,2.297872,1,0.510638,2.297872,2.085106,2,1.106383,0.404255,0.319149,0.297872,0.446809,0.021277,0,1
70,12,1.25,4.542857,5.833333,2.057143,0,0.257143,2.057143,1.714286,1.514286,0.842857,0.228571,0.142857,0.071429,0.128571,0,0,1
62,15,1.133333,4.258065,4.133333,1.983871,0,0.241935,1.983871,1.645161,1.354839,0.758065,0.209677,0.112903,0.064516,0.112903,0,0,1
24,6,0,3.541667,4,1.75,0,0.125,1.75,1.458333,0.875,0.541667,0.125,0,0.041667,0.041667,0,0,1
54,10,1.2,5.018519,5.4,2.12963,0,0.444444,2.12963,1.851852,1.62963,1,0.407407,0.296296,0.148148,0.222222,0.018519,0.018519,1
40,8,0,4.975,5,2.175,1,0.375,2.175,1.925,1.675,0.975,0.375,0.225,0.15,0.225,0,0,1
39,9,0,4.589744,4.333333,2.051282,0,0.179487,2.051282,1.846154,1.461538,0.846154,0.128205,0.128205,0.051282,0.102564,0,0,1
154,24,1.789474,4.448052,6.416667,1.883117,0,0.461039,1.883117,1.623377,1.285714,0.792208,0.383117,0.253247,0.194805,0.344156,0.051948,0.012987,1
51,10,1.2,4.764706,5.1,2.058824,0,0.392157,2.058824,1.764706,1.54902,0.921569,0.294118,0.176471,0.215686,0.313725,0.019608,0,1
19,6,0,3.473684,3.166667,1.578947,0,0.315789,1.578947,1.315789,0.789474,0.526316,0.210526,0,0,0.105263,0,0,1
43,8,0,4.72093,5.375,2.069767,0,0.232558,2.069767,1.790698,1.604651,0.883721,0.232558,0.209302,0.093023,0.116279,0,0,1
44,10,0,4.568182,4.4,2,0,0.340909,2,1.659091,1.477273,0.75,0.272727,0.113636,0.159091,0.159091,0,0,1
40,10,0,5.475,4,2.375,1,0.45,2.375,2.175,1.7,1.075,0.425,0.4,0.175,0.35,0,0,1
16,6,0,4.5,2.666667,1.75,0,0.5625,1.75,1.375,1.5625,0.9375,0.5625,0.25,0.375,0.375,0,0,1
36,8,0,5.416667,4.5,2.388889,2,0.388889,2.388889,2,1.916667,0.888889,0.361111,0.222222,0.083333,0.166667,0,0,1
39,12,0,5.384615,3.25,2.307692,0,0.435897,2.307692,1.974359,1.871795,1.051282,0.410256,0.230769,0.153846,0.282051,0.076923,0,1
64,13,0,4.875,4.923077,2.015625,0,0.5,2.015625,1.84375,1.34375,0.953125,0.40625,0.296875,0.21875,0.375,0.109375,0,1
12,6,0,3.333333,2,1.666667,0,0,1.666667,1.5,0.666667,0.583333,0,0,0,0,0,0,1
19,6,0,3.947368,3.166667,1.526316,0,0.421053,1.526316,1.052632,1.473684,0.842105,0.421053,0.157895,0.157895,0.157895,0,0,1
51,18,0,5.039216,2.833333,2.176471,0,0.392157,2.176471,1.823529,1.490196,0.882353,0.352941,0.27451,0.137255,0.294118,0.019608,0.019608,1
19,6,0,4.052632,3.166667,1.736842,0,0.263158,1.736842,1.526316,1.263158,0.894737,0.263158,0.157895,0.157895,0.157895,0,0,1
83,9,1.111111,4.843373,9.222222,1.975904,0,0.506024,1.975904,1.759036,1.481928,0.891566,0.349398,0.277108,0.180723,0.361446,0.012048,0,1
28,6,0,4.107143,4.666667,1.714286,0,0.285714,1.714286,1.214286,1.392857,0.571429,0.178571,0.178571,0.071429,0.178571,0,0,1
15,7,0,4.4,2.142857,1.866667,0,0,1.866667,1.866667,1.533333,0.866667,0,0,0,0,0,0,1
54,10,1.1,3.962963,5.4,1.888889,0,0.092593,1.888889,1.722222,1.074074,0.722222,0.074074,0.037037,0.037037,0.055556,0,0,1
70,21,1.1,3.728571,3.333333,1.7,0,0.328571,1.7,1.314286,1.071429,0.642857,0.314286,0.3,0.014286,0.028571,0,0,1
15,4,0,3.533333,3.75,1.533333,0,0.333333,1.533333,1.333333,0.866667,0.666667,0.333333,0.133333,0.133333,0.133333,0,0,1
4,1,0,3.25,4,1.5,0,0.25,1.5,1.25,0.75,0.5,0.25,0,0,0,0,0,1
21,6,0,4.380952,3.5,2.142857,0,0.190476,2.142857,1.666667,1.380952,0.619048,0.190476,0.095238,0.095238,0.190476,0.047619,0,1
67,16,0,5.208955,4.1875,2.134328,0,0.432836,2.134328,1.835821,1.865672,1,0.402985,0.134328,0.104478,0.134328,0.014925,0,1
101,11,1.090909,4.821782,9.181818,1.930693,1,0.455446,1.930693,1.752475,1.50495,0.90099,0.445545,0.366337,0.148515,0.227723,0.089109,0,1
12,5,0,3.666667,2.4,1.5,0,0.25,1.5,1.5,0.916667,0.916667,0.25,0.25,0.25,0.25,0,0,1
40,6,0,4.55,6.666667,1.9,0,0.45,1.9,1.5,1.475,0.8,0.4,0.275,0.175,0.25,0.1,0,1
16,6,0,3.5,2.666667,1.6875,0,0.25,1.6875,1.3125,0.8125,0.375,0.25,0,0,0.1875,0,0,1
31,7,0,4.774194,4.428571,2.193548,0,0.354839,2.193548,1.774194,1.516129,1.032258,0.322581,0.16129,0.129032,0.258065,0.064516,0,1
4,2,0,3.5,2,1.75,0,0,1.75,1.75,0.75,0.75,0,0,0,0,0,0,1
7,2,0,3.285714,3.5,1.571429,0,0.142857,1.571429,1.428571,0.714286,0.571429,0.142857,0,0,0,0,0,1
55,11,1.1,5.327273,5,2.218182,0,0.509091,2.218182,2.054545,1.727273,1.109091,0.418182,0.345455,0.181818,0.363636,0.072727,0.018182,1
52,11,1.222222,4.961538,4.727273,1.980769,0,0.5,1.980769,1.826923,1.557692,1.076923,0.403846,0.288462,0.307692,0.346154,0.057692,0,1
55,6,0,3.854545,9.166667,1.8,0,0.218182,1.8,1.509091,1.036364,0.618182,0.218182,0.109091,0.072727,0.181818,0.036364,0,1
19,5,0,4,3.8,1.736842,0,0.315789,1.736842,1.526316,1.105263,0.736842,0.210526,0.210526,0.052632,0.157895,0,0,1
13,3,0,3.692308,4.333333,1.615385,0,0.307692,1.615385,1.461538,0.923077,0.769231,0.307692,0.153846,0.153846,0.153846,0,0,1
7,0,0,4.571429,7,1.857143,0,0.285714,1.857143,1.857143,1.428571,1.285714,0.285714,0.285714,0.285714,0.285714,0,0,1
54,11,0,4.925926,4.909091,2,0,0.462963,2,1.759259,1.481481,0.962963,0.388889,0.277778,0.185185,0.351852,0.018519,0.018519,1
54,16,1.375,4.648148,3.375,2.166667,0,0.185185,2.166667,1.888889,1.518519,0.888889,0.148148,0.148148,0.018519,0.074074,0,0,1
56,18,0,5,3.111111,2.071429,0,0.428571,2.071429,1.75,1.589286,0.928571,0.375,0.285714,0.214286,0.339286,0.035714,0,1
44,8,0,5.159091,5.5,2.181818,1,0.545455,2.181818,1.909091,1.659091,0.886364,0.431818,0.227273,0.090909,0.204545,0,0,1
89,23,1.347826,5.269663,3.869565,2.404494,2,0.348315,2.404494,2.101124,1.662921,0.898876,0.325843,0.247191,0.089888,0.213483,0.033708,0,1
21,4,0,4.904762,5.25,1.857143,0,0.666667,1.857143,1.666667,1.52381,0.952381,0.571429,0.428571,0.285714,0.47619,0.047619,0.047619,1
39,7,0,4.25641,5.571429,1.846154,0,0.358974,1.846154,1.538462,1.282051,0.666667,0.205128,0.179487,0.128205,0.25641,0.025641,0,1
31,12,0,4.806452,2.583333,2.16129,0,0.225806,2.16129,2,1.451613,1,0.225806,0.16129,0.032258,0.064516,0,0,1
21,6,0,4.095238,3.5,1.666667,0,0.428571,1.666667,1.380952,1.285714,0.761905,0.380952,0.238095,0.142857,0.190476,0,0,1
52,7,0,4.75,7.428571,2,0,0.557692,2,1.596154,1.461538,0.846154,0.5,0.307692,0.134615,0.307692,0.019231,0,1
22,6,0,3.272727,3.666667,1.5,0,0.181818,1.5,1.227273,0.863636,0.590909,0.181818,0,0,0,0,0,1
225,15,1.6,4.893333,15,2.084444,9,0.453333,2.084444,1.813333,1.502222,0.848889,0.328889,0.244444,0.186667,0.346667,0.022222,0,1
79,12,1.6,4.848101,6.583333,1.987342,1,0.35443,1.987342,1.78481,1.594937,0.936709,0.329114,0.227848,0.202532,0.253165,0.012658,0,1
53,10,0,4.283019,5.3,1.849057,0,0.283019,1.849057,1.660377,1.283019,0.716981,0.226415,0.169811,0.056604,0.207547,0,0,1
23,6,0,3.73913,3.833333,1.608696,0,0.217391,1.608696,1.304348,1.173913,0.565217,0.217391,0.086957,0.043478,0.043478,0,0,1
126,14,1.666667,4.428571,9,1.857143,1,0.5,1.857143,1.5,1.357143,0.674603,0.404762,0.325397,0.063492,0.198413,0.007937,0,1
48,10,1.1,4.4375,4.8,1.916667,0,0.395833,1.916667,1.520833,1.395833,0.6875,0.333333,0.25,0.041667,0.145833,0,0,1
99,12,1.416667,4.777778,8.25,2.030303,1,0.444444,2.030303,1.737374,1.474747,0.868687,0.383838,0.252525,0.191919,0.323232,0.050505,0.010101,1
99,12,1.416667,4.777778,8.25,2.030303,1,0.444444,2.030303,1.737374,1.474747,0.868687,0.383838,0.252525,0.191919,0.323232,0.050505,0.010101,1
62,8,1.125,5.225806,7.75,2.322581,2,0.467742,2.322581,1.903226,1.596774,0.887097,0.419355,0.33871,0.193548,0.370968,0.016129,0,1
85,8,1.625,4.341176,10.625,1.847059,0,0.364706,1.847059,1.552941,1.376471,0.847059,0.317647,0.235294,0.117647,0.247059,0.035294,0.011765,1
27,7,0,4.333333,3.857143,1.851852,0,0.444444,1.851852,1.407407,1.407407,0.777778,0.444444,0.259259,0.111111,0.148148,0.037037,0,1
11,4,0,3.909091,2.75,1.727273,0,0.272727,1.727273,1.636364,1,0.909091,0.272727,0.181818,0.181818,0.181818,0,0,1
49,10,0,4.306122,4.9,1.857143,0,0.428571,1.857143,1.571429,1.244898,0.755102,0.367347,0.22449,0.081633,0.204082,0.020408,0,1
35,12,0,5.028571,2.916667,2.171429,0,0.285714,2.171429,2,1.657143,1.028571,0.285714,0.285714,0.085714,0.142857,0,0,1
52,10,0,4.557692,5.2,2.038462,0,0.326923,2.038462,1.769231,1.384615,0.865385,0.269231,0.192308,0.076923,0.211538,0.019231,0,1
47,9,0,4.12766,5.222222,1.808511,0,0.276596,1.808511,1.531915,1.148936,0.744681,0.212766,0.170213,0.085106,0.106383,0.021277,0.021277,1
17,5,0,3.235294,3.4,1.529412,0,0,1.529412,1.411765,0.764706,0.588235,0,0,0,0,0,0,1
54,17,1.058824,5.018519,3.176471,2.074074,0,0.444444,2.074074,1.851852,1.555556,1,0.425926,0.333333,0.277778,0.333333,0.074074,0.037037,1
21,6,0,3.238095,3.5,1.666667,0,0.047619,1.666667,1.285714,0.809524,0.380952,0.047619,0,0,0,0,0,1
13,4,0,3.846154,3.25,1.846154,0,0.384615,1.846154,1.538462,0.923077,0.538462,0.384615,0.076923,0.076923,0.384615,0,0,1
92,9,1.222222,4.554348,10.222222,1.956522,1,0.456522,1.956522,1.652174,1.336957,0.76087,0.282609,0.217391,0.173913,0.369565,0.021739,0,1
22,6,0,3.5,3.666667,1.772727,0,0,1.772727,1.5,0.818182,0.454545,0,0,0,0,0,0,1
66,13,1.076923,4.848485,5.076923,2.19697,0,0.318182,2.19697,1.924242,1.424242,0.909091,0.30303,0.19697,0.181818,0.30303,0.015152,0,1
47,8,0,4.744681,5.875,2.021277,0,0.489362,2.021277,1.808511,1.382979,0.829787,0.382979,0.297872,0.212766,0.382979,0.021277,0.021277,1
20,6,0,3.75,3.333333,1.8,0,0.15,1.8,1.6,1,0.75,0.15,0.1,0,0.1,0,0,1
184,20,1.8,4.516304,9.2,1.978261,2,0.505435,1.978261,1.543478,1.271739,0.695652,0.380435,0.271739,0.103261,0.331522,0.054348,0,1
53,10,0,4.471698,5.3,1.924528,0,0.377358,1.924528,1.698113,1.320755,0.867925,0.320755,0.207547,0.09434,0.207547,0.037736,0,1
29,10,0,4.413793,2.9,1.931034,1,0.172414,1.931034,1.862069,1.37931,0.965517,0.103448,0.068966,0.137931,0.137931,0,0,1
32,12,0,4.84375,2.666667,2.125,0,0.375,2.125,1.71875,1.6875,0.96875,0.3125,0.125,0.21875,0.21875,0,0,1
41,7,0,4.878049,5.857143,2.02439,0,0.512195,2.02439,1.731707,1.414634,0.878049,0.414634,0.292683,0.170732,0.365854,0.073171,0.02439,1
23,6,1.833333,4.130435,3.833333,1.73913,0,0.26087,1.73913,1.434783,1.434783,0.782609,0.217391,0.130435,0.086957,0.130435,0,0,1
19,6,0,3.947368,3.166667,1.578947,0,0.368421,1.578947,1.157895,1.421053,0.684211,0.368421,0,0.157895,0.157895,0,0,1
69,12,0,4.536232,5.75,1.942029,0,0.391304,1.942029,1.652174,1.434783,0.855072,0.347826,0.231884,0.130435,0.202899,0.043478,0,1
92,20,3.333333,4.771739,4.6,1.98913,2,0.521739,1.98913,1.619565,1.543478,0.902174,0.391304,0.26087,0.217391,0.326087,0.043478,0,1
60,16,1.125,4.65,3.75,2.15,5,0.283333,2.15,1.716667,1.383333,0.783333,0.233333,0.15,0.1,0.183333,0,0,1
82,15,1.066667,5.402439,5.466667,2.390244,7,0.463415,2.390244,2.036585,1.756098,1,0.390244,0.353659,0.195122,0.353659,0.02439,0,2
273,26,1.714286,4.578755,10.5,1.941392,3,0.490842,1.941392,1.637363,1.369963,0.794872,0.391941,0.289377,0.172161,0.362637,0.025641,0.003663,2
55,11,1.090909,5.290909,5,2.236364,2,0.490909,2.236364,1.981818,1.763636,1.072727,0.436364,0.363636,0.2,0.327273,0.072727,0,2
69,5,0,5.15942,13.8,2.188406,1,0.623188,2.188406,1.724638,1.507246,0.782609,0.521739,0.231884,0.202899,0.463768,0.043478,0,2
63,7,1.5,4.777778,9,2.095238,1,0.380952,2.095238,1.730159,1.52381,0.920635,0.333333,0.238095,0.190476,0.285714,0,0,2
74,10,1.3,4.621622,7.4,2.067568,2,0.459459,2.067568,1.594595,1.459459,0.756757,0.391892,0.216216,0.121622,0.283784,0.067568,0,2
186,38,1.131579,5.11828,4.894737,2.258065,4,0.365591,2.258065,2.032258,1.575269,1.021505,0.33871,0.274194,0.145161,0.274194,0.048387,0.005376,2
54,7,1.428571,4.555556,7.714286,1.981481,1,0.481481,1.981481,1.685185,1.333333,0.777778,0.333333,0.240741,0.166667,0.333333,0.055556,0,2
69,10,1.3,4.318841,6.9,1.898551,0,0.188406,1.898551,1.695652,1.405797,0.811594,0.173913,0.130435,0.057971,0.086957,0,0,2
75,7,1.142857,4.48,10.714286,1.906667,2,0.56,1.906667,1.4,1.333333,0.68,0.426667,0.306667,0.106667,0.253333,0.026667,0,2
273,54,1.092593,5.417582,5.055556,2.285714,10,0.582418,2.285714,1.992674,1.637363,1.021978,0.494505,0.377289,0.263736,0.465201,0.040293,0.007326,2
88,20,0,4.556818,4.4,1.965909,0,0.329545,1.965909,1.727273,1.409091,0.852273,0.272727,0.147727,0.170455,0.227273,0.022727,0,2
118,26,1.038462,4.966102,4.538462,2.084746,2,0.457627,2.084746,1.737288,1.669492,0.90678,0.432203,0.245763,0.144068,0.271186,0.033898,0,2
117,24,1.125,4.760684,4.875,2.068376,3,0.384615,2.068376,1.811966,1.452991,0.897436,0.316239,0.222222,0.179487,0.264957,0.076923,0,2
45,5,1.8,4.8,9,1.933333,0,0.466667,1.933333,1.8,1.511111,0.977778,0.266667,0.244444,0.222222,0.377778,0.022222,0,2
153,33,0,5,4.636364,2.163399,6,0.326797,2.163399,1.954248,1.653595,0.986928,0.27451,0.189542,0.150327,0.20915,0.019608,0,2
188,39,0,5.446809,4.820513,2.31383,10,0.569149,2.31383,1.984043,1.702128,1,0.515957,0.345745,0.239362,0.37234,0.047872,0.015957,2
112,24,0,4.6875,4.666667,2.142857,1,0.258929,2.142857,1.723214,1.464286,0.723214,0.232143,0.196429,0.089286,0.1875,0.026786,0,2
48,15,0,5.395833,3.2,2.270833,0,0.479167,2.270833,1.916667,1.708333,1,0.479167,0.25,0.229167,0.354167,0.041667,0.020833,2
113,22,0,4.955752,5.136364,2.238938,2,0.345133,2.238938,1.858407,1.672566,0.884956,0.238938,0.19469,0.088496,0.20354,0,0,2
149,20,2.65,4.342282,7.45,1.771812,2,0.442953,1.771812,1.47651,1.302013,0.744966,0.342282,0.214765,0.181208,0.261745,0.060403,0.006711,2
163,25,2.75,4.312883,6.52,1.852761,4,0.478528,1.852761,1.503067,1.09816,0.638037,0.355828,0.233129,0.159509,0.312883,0.030675,0.018405,2
45,5,1.6,4.822222,9,2.177778,0,0.266667,2.177778,1.933333,1.577778,0.844444,0.133333,0.111111,0.022222,0.177778,0,0,2
52,10,0,4.442308,5.2,2.076923,0,0.230769,2.076923,1.75,1.346154,0.75,0.192308,0.173077,0.076923,0.173077,0,0,2
71,16,0,4.492958,4.4375,1.971831,0,0.225352,1.971831,1.71831,1.478873,0.859155,0.197183,0.126761,0.098592,0.169014,0,0,2
119,24,1.041667,4.89916,4.958333,2.10084,1,0.487395,2.10084,1.781513,1.554622,0.87395,0.428571,0.252101,0.168067,0.285714,0.109244,0,2
59,11,0,4.338983,5.363636,1.898305,0,0.440678,1.898305,1.627119,1.220339,0.779661,0.338983,0.271186,0.101695,0.305085,0.016949,0,2
97,15,1.266667,5.051546,6.466667,2.195876,4,0.360825,2.195876,2,1.587629,1.010309,0.298969,0.237113,0.206186,0.28866,0.020619,0,2
90,12,1.416667,4.6,7.5,2,2,0.355556,2,1.611111,1.488889,0.755556,0.266667,0.144444,0.122222,0.222222,0.011111,0,2
103,18,1.222222,5.368932,5.722222,2.427184,7,0.31068,2.427184,2.038835,1.883495,1.038835,0.300971,0.203883,0.07767,0.126214,0.009709,0,2
160,15,1.933333,5.19375,10.666667,2.18125,9,0.6,2.18125,1.8875,1.56875,0.9125,0.49375,0.38125,0.25,0.3875,0.06875,0,2
101,72,1.029412,4.841584,1.402778,2.178218,1,0.336634,2.178218,1.772277,1.544554,0.881188,0.326733,0.19802,0.178218,0.247525,0.029703,0,2
118,20,0,4.686441,5.9,1.957627,0,0.381356,1.957627,1.70339,1.567797,0.889831,0.29661,0.194915,0.101695,0.186441,0.008475,0,2
114,12,1.166667,4.368421,9.5,1.72807,2,0.587719,1.72807,1.482456,1.201754,0.789474,0.45614,0.333333,0.166667,0.350877,0.035088,0,2
292,60,1.346154,4.952055,4.866667,2.119863,4,0.414384,2.119863,1.85274,1.544521,0.938356,0.332192,0.239726,0.195205,0.311644,0.013699,0.003425,2
301,37,1.44,4.667774,8.135135,2.039867,10,0.461794,2.039867,1.737542,1.318937,0.734219,0.305648,0.20598,0.172757,0.365449,0.023256,0.003322,2
106,16,0,4.933962,6.625,2.103774,1,0.490566,2.103774,1.716981,1.575472,0.915094,0.415094,0.264151,0.179245,0.301887,0.056604,0.009434,2
293,56,1.017857,5.358362,5.232143,2.25256,21,0.556314,2.25256,1.952218,1.720137,1,0.467577,0.324232,0.225256,0.399317,0.040956,0,2
689,100,1.528302,4.767779,6.89,2.013062,8,0.476052,2.013062,1.711176,1.464441,0.878084,0.435414,0.29463,0.188679,0.291727,0.058055,0.001451,2
47,10,1.1,4.829787,4.7,2.042553,0,0.553191,2.042553,1.808511,1.340426,0.787234,0.468085,0.276596,0.148936,0.404255,0.06383,0,2
81,18,0,4.753086,4.5,2.074074,0,0.395062,2.074074,1.62963,1.604938,0.888889,0.37037,0.160494,0.135802,0.17284,0.012346,0,2
880,90,1.361111,4.930682,9.777778,2.109091,24,0.463636,2.109091,1.802273,1.531818,0.843182,0.347727,0.225,0.165909,0.310227,0.029545,0.004545,2
454,74,1.326923,4.64978,6.135135,1.955947,5,0.497797,1.955947,1.709251,1.348018,0.806167,0.365639,0.26652,0.143172,0.334802,0.061674,0.015419,2
142,24,0,4.922535,5.916667,1.978873,0,0.598592,1.978873,1.732394,1.485915,0.93662,0.528169,0.309859,0.232394,0.323944,0.119718,0,2
124,22,1.095238,4.91129,5.636364,2.08871,2,0.403226,2.08871,1.798387,1.556452,1,0.370968,0.314516,0.145161,0.209677,0.016129,0,2
152,25,0,4.638158,6.08,1.907895,2,0.381579,1.907895,1.723684,1.434211,0.888158,0.342105,0.236842,0.118421,0.184211,0.032895,0,2
56,9,1.222222,4.910714,6.222222,2.053571,0,0.5,2.053571,1.892857,1.482143,0.928571,0.428571,0.303571,0.160714,0.375,0.089286,0,2
33,6,0,4.636364,5.5,1.939394,0,0.333333,1.939394,1.757576,1.515152,0.939394,0.30303,0.242424,0.121212,0.151515,0,0,2
323,37,1.608696,4.374613,8.72973,1.928793,4,0.346749,1.928793,1.575851,1.291022,0.708978,0.256966,0.176471,0.080495,0.201238,0.012384,0.009288,2
155,29,1.034483,5.303226,5.344828,2.322581,9,0.4,2.322581,2.070968,1.709677,1.032258,0.367742,0.277419,0.167742,0.290323,0.025806,0,2
186,37,1.055556,5.241935,5.027027,2.145161,10,0.553763,2.145161,1.935484,1.655914,1.005376,0.478495,0.408602,0.215054,0.344086,0.026882,0,2
162,30,1.033333,5.216049,5.4,2.302469,13,0.376543,2.302469,2.04321,1.691358,0.993827,0.320988,0.253086,0.191358,0.265432,0.012346,0,2
74,14,1.142857,4.959459,5.285714,2.148649,2,0.364865,2.148649,1.918919,1.554054,0.945946,0.283784,0.22973,0.175676,0.310811,0.027027,0,2
68,8,1.125,5.073529,8.5,2.191176,2,0.573529,2.191176,1.764706,1.588235,0.897059,0.470588,0.308824,0.25,0.397059,0.044118,0,2
923,79,1.745763,4.345612,11.683544,1.84507,14,0.394366,1.84507,1.593716,1.247021,0.754063,0.291441,0.218852,0.125677,0.277356,0.021668,0.001083,2
1034,102,1.534884,4.5706,10.137255,1.94971,9,0.445841,1.94971,1.674081,1.350097,0.811412,0.360735,0.265957,0.137331,0.297872,0.018375,0.001934,2
47,10,0,4.361702,4.7,1.765957,0,0.446809,1.765957,1.425532,1.489362,0.765957,0.382979,0.12766,0.234043,0.297872,0,0,2
109,20,1.105263,4.706422,5.45,2.137615,3,0.238532,2.137615,1.862385,1.550459,0.844037,0.183486,0.110092,0.100917,0.155963,0.009174,0,2
206,28,2.62069,4.359223,7.357143,1.805825,0,0.407767,1.805825,1.495146,1.38835,0.737864,0.325243,0.218447,0.126214,0.218447,0,0,2
233,51,1.113636,4.60515,4.568627,1.965665,2,0.407725,1.965665,1.742489,1.351931,0.862661,0.32618,0.2103,0.111588,0.223176,0.030043,0.008584,2
293,34,2.166667,4.68942,8.617647,2.010239,4,0.419795,2.010239,1.788396,1.412969,0.825939,0.34471,0.25256,0.150171,0.255973,0.020478,0,2
429,30,1.333333,4.699301,14.3,1.951049,4,0.547786,1.951049,1.657343,1.417249,0.794872,0.421911,0.289044,0.125874,0.333333,0.006993,0,2
54,6,0,4.87037,9,2.037037,0,0.518519,2.037037,1.851852,1.462963,1.092593,0.462963,0.277778,0.240741,0.37037,0.148148,0,2
184,55,0,4.201087,3.345455,1.793478,1,0.293478,1.793478,1.570652,1.13587,0.744565,0.277174,0.222826,0.119565,0.13587,0.005435,0,2
112,16,1.1875,4.866071,7,2.071429,0,0.455357,2.071429,1.803571,1.517857,0.919643,0.392857,0.3125,0.1875,0.321429,0.026786,0,2
71,16,1.0625,5.84507,4.4375,2.464789,2,0.549296,2.464789,2.197183,1.971831,1.211268,0.450704,0.338028,0.267606,0.478873,0.028169,0,2
163,17,4,4.674847,9.588235,2.171779,7,0.312883,2.171779,1.674847,1.533742,0.791411,0.294479,0.184049,0.104294,0.165644,0,0,2
50,7,0,5.88,7.142857,2.38,4,0.72,2.38,2.18,1.78,1.24,0.58,0.4,0.36,0.62,0.12,0.02,2
120,20,1.375,4.741667,6,1.925,1,0.408333,1.925,1.666667,1.616667,0.941667,0.283333,0.208333,0.116667,0.283333,0.016667,0,2
125,19,1.263158,4.568,6.578947,1.928,0,0.448,1.928,1.712,1.368,0.816,0.256,0.136,0.144,0.352,0.048,0.008,2
176,40,1.235294,4.107955,4.4,1.852273,5,0.221591,1.852273,1.653409,1.142045,0.715909,0.181818,0.096591,0.068182,0.125,0.017045,0,2
139,23,1.357143,4.748201,6.043478,1.94964,2,0.532374,1.94964,1.683453,1.402878,0.877698,0.42446,0.294964,0.194245,0.359712,0.05036,0.014388,2
1050,97,1.65625,4.897143,10.824742,2.12,29,0.522857,2.12,1.76381,1.498095,0.866667,0.424762,0.269524,0.22,0.372381,0.030476,0,2
169,31,0,5.053254,5.451613,2.171598,7,0.532544,2.171598,1.863905,1.514793,0.87574,0.431953,0.272189,0.183432,0.372781,0.047337,0.011834,2
284,56,1.439024,4.676056,5.071429,2.052817,7,0.383803,2.052817,1.739437,1.464789,0.827465,0.316901,0.235915,0.151408,0.228873,0.017606,0.003521,2
91,16,0,5.175824,5.6875,2.175824,1,0.527473,2.175824,1.912088,1.648352,0.989011,0.43956,0.32967,0.186813,0.362637,0.054945,0.010989,2
92,8,1.444444,4.728261,11.5,2.01087,2,0.576087,2.01087,1.467391,1.554348,0.771739,0.554348,0.358696,0.141304,0.26087,0.021739,0,2
87,17,1.0625,4.724138,5.117647,2.091954,0,0.356322,2.091954,1.770115,1.402299,0.83908,0.344828,0.264368,0.172414,0.252874,0.045977,0.011494,2
162,35,1.25,5.203704,4.628571,2.037037,2,0.611111,2.037037,1.845679,1.561728,0.969136,0.45679,0.345679,0.246914,0.358025,0.030864,0,2
93,17,0,4.645161,5.470588,2,0,0.215054,2,1.924731,1.494624,1.064516,0.215054,0.172043,0.053763,0.107527,0,0,2
102,18,0,4.617647,5.666667,1.980392,4,0.372549,1.980392,1.637255,1.470588,0.784314,0.303922,0.245098,0.196078,0.27451,0.009804,0,2
87,19,1.157895,5.034483,4.578947,2.103448,2,0.517241,2.103448,1.804598,1.632184,0.977011,0.425287,0.321839,0.195402,0.310345,0.045977,0,2
88,16,1.181818,4.318182,5.5,1.965909,0,0.204545,1.965909,1.704545,1.329545,0.806818,0.193182,0.125,0.090909,0.170455,0,0,2
80,12,2,4.175,6.666667,1.8875,0,0.3,1.8875,1.675,1.1375,0.7125,0.225,0.1625,0.1,0.2625,0.025,0,2
219,43,1.131579,5.041096,5.093023,2.16895,9,0.406393,2.16895,1.899543,1.625571,0.954338,0.369863,0.251142,0.127854,0.246575,0.031963,0,2
42,5,1.2,4.261905,8.4,1.880952,0,0.404762,1.880952,1.619048,1.095238,0.642857,0.190476,0.166667,0.142857,0.333333,0.047619,0.047619,2
301,62,0,4.757475,4.854839,2.063123,3,0.365449,2.063123,1.767442,1.465116,0.89701,0.322259,0.255814,0.116279,0.17608,0.006645,0,2
37,7,0,4.756757,5.285714,2.108108,0,0.405405,2.108108,1.783784,1.486486,0.756757,0.27027,0.135135,0.216216,0.27027,0,0,2
141,26,1.041667,4.617021,5.423077,1.914894,1,0.404255,1.914894,1.737589,1.425532,0.893617,0.375887,0.283688,0.177305,0.241135,0.014184,0,2
141,35,1.147059,4.801418,4.028571,2.014184,5,0.446809,2.014184,1.815603,1.382979,0.886525,0.312057,0.212766,0.219858,0.304965,0.014184,0,2
231,45,1.190476,4.900433,5.133333,2.168831,4,0.380952,2.168831,1.926407,1.510823,0.978355,0.341991,0.233766,0.203463,0.30303,0.017316,0,2
255,52,1.076923,4.870588,4.903846,2.094118,4,0.396078,2.094118,1.854902,1.454902,0.913725,0.333333,0.25098,0.156863,0.270588,0.035294,0.007843,2
97,9,1.222222,4.71134,10.777778,1.948454,3,0.494845,1.948454,1.628866,1.494845,0.814433,0.340206,0.237113,0.123711,0.226804,0.041237,0,2
82,9,1.222222,4.658537,9.111111,2.02439,3,0.378049,2.02439,1.670732,1.45122,0.756098,0.304878,0.195122,0.109756,0.219512,0.012195,0.012195,2
159,24,0,4.672956,6.625,2.025157,1,0.377358,2.025157,1.792453,1.396226,0.874214,0.345912,0.232704,0.106918,0.220126,0.012579,0,2
113,23,1.043478,4.716814,4.913043,2.079646,0,0.256637,2.079646,1.938053,1.469027,0.964602,0.212389,0.19469,0.132743,0.185841,0,0,2
142,28,1.071429,4.915493,5.071429,2.028169,2,0.549296,2.028169,1.753521,1.507042,0.915493,0.514085,0.373239,0.204225,0.267606,0.077465,0,2
71,16,1.125,3.746479,4.4375,1.690141,0,0.169014,1.690141,1.507042,0.985915,0.690141,0.169014,0.169014,0.056338,0.056338,0,0,2
211,23,1.352941,4.654028,9.173913,1.962085,4,0.488152,1.962085,1.701422,1.383886,0.819905,0.336493,0.222749,0.175355,0.312796,0.018957,0.004739,2
78,4,1.5,4.717949,19.5,2.089744,0,0.397436,2.089744,1.769231,1.410256,0.692308,0.320513,0.25641,0.102564,0.24359,0,0,2
528,48,1.564103,4.507576,11,1.931818,6,0.412879,1.931818,1.643939,1.401515,0.8125,0.306818,0.225379,0.126894,0.265152,0.011364,0,3
444,43,1.472222,4.626126,10.325581,1.959459,9,0.43018,1.959459,1.707207,1.387387,0.844595,0.355856,0.263514,0.177928,0.288288,0.013514,0,3
116,23,1.130435,4.534483,5.043478,1.956897,2,0.37069,1.956897,1.681034,1.431034,0.793103,0.301724,0.206897,0.094828,0.232759,0.008621,0,3
236,18,1.833333,4.84322,13.111111,2.080508,3,0.512712,2.080508,1.754237,1.461864,0.868644,0.402542,0.25,0.220339,0.372881,0.055085,0.004237,3
811,71,2.404762,4.784217,11.422535,2.029593,18,0.436498,2.029593,1.766954,1.44143,0.844636,0.336621,0.237978,0.167694,0.316893,0.036991,0.019729,3
206,22,1.428571,4.563107,9.363636,1.941748,3,0.432039,1.941748,1.640777,1.38835,0.830097,0.354369,0.257282,0.135922,0.242718,0.019417,0,3
996,88,1.542857,4.718876,11.318182,1.97992,26,0.512048,1.97992,1.714859,1.369478,0.855422,0.403614,0.300201,0.207831,0.37249,0.041165,0,3
122,13,1.25,4.491803,9.384615,1.918033,2,0.377049,1.918033,1.565574,1.442623,0.770492,0.295082,0.188525,0.098361,0.213115,0.016393,0.008197,3
547,76,1.372549,4.738574,7.197368,2.012797,8,0.517367,2.012797,1.69287,1.374771,0.85192,0.429616,0.308958,0.202925,0.371115,0.02925,0.009141,3
440,43,1.4,4.581818,10.232558,2,5,0.343182,2,1.686364,1.481818,0.775,0.288636,0.204545,0.1,0.213636,0.009091,0,3
239,56,1.217391,4.640167,4.267857,1.90795,3,0.468619,1.90795,1.543933,1.451883,0.874477,0.384937,0.242678,0.200837,0.292887,0.029289,0,3
559,65,1.339623,4.799642,8.6,2.037567,3,0.465116,2.037567,1.681574,1.474061,0.840787,0.39356,0.254025,0.144902,0.302326,0.026834,0.001789,3
173,11,1.363636,4.543353,15.727273,1.930636,0,0.433526,1.930636,1.531792,1.421965,0.751445,0.312139,0.219653,0.115607,0.248555,0.00578,0,3
189,19,1.3125,4.671958,9.947368,1.89418,8,0.470899,1.89418,1.645503,1.449735,0.851852,0.365079,0.301587,0.148148,0.190476,0.026455,0.005291,3
677,83,1.482759,4.559823,8.156627,1.951256,14,0.480059,1.951256,1.66322,1.323486,0.748892,0.381093,0.237814,0.172821,0.353028,0.047267,0.008863,3
430,38,2.269231,4.511628,11.315789,1.860465,7,0.388372,1.860465,1.602326,1.4,0.85814,0.344186,0.24186,0.160465,0.244186,0.011628,0.002326,3
414,30,1.851852,4.753623,13.8,2.004831,15,0.550725,2.004831,1.722222,1.381643,0.804348,0.36715,0.241546,0.164251,0.391304,0.028986,0.002415,3
196,18,2,4.505102,10.888889,1.984694,4,0.392857,1.984694,1.637755,1.306122,0.75,0.316327,0.193878,0.117347,0.25,0.015306,0.005102,3
162,32,1.03125,4.709877,5.0625,1.95679,1,0.450617,1.95679,1.790123,1.401235,0.932099,0.432099,0.358025,0.17284,0.308642,0.018519,0,3
437,30,1.551724,4.613272,14.566667,1.965675,2,0.434783,1.965675,1.677346,1.366133,0.803204,0.345538,0.23341,0.155606,0.279176,0.020595,0,3
90,13,1.076923,5.022222,6.923077,2.1,4,0.355556,2.1,1.922222,1.677778,1,0.333333,0.222222,0.166667,0.233333,0.044444,0.011111,3
629,86,1.618182,5.074722,7.313953,2.031797,12,0.656598,2.031797,1.732909,1.535771,0.947536,0.54213,0.368839,0.27504,0.467409,0.09062,0,3
365,50,1.514286,4.657534,7.3,1.980822,3,0.457534,1.980822,1.706849,1.380822,0.813699,0.405479,0.273973,0.139726,0.293151,0.038356,0.005479,3
126,12,1.333333,4.68254,10.5,2,2,0.420635,2,1.706349,1.507937,0.857143,0.349206,0.277778,0.15873,0.253968,0.02381,0.007937,3
3572,201,2.203125,4.759518,17.771144,2.008119,94,0.530235,2.008119,1.708287,1.404815,0.819709,0.383819,0.260918,0.18897,0.378499,0.047312,0.003359,3
410,49,1.533333,4.54878,8.367347,1.965854,9,0.429268,1.965854,1.660976,1.339024,0.773171,0.326829,0.221951,0.168293,0.321951,0.017073,0,3
101,72,1.029412,4.841584,1.402778,2.178218,1,0.336634,2.178218,1.772277,1.544554,0.881188,0.326733,0.19802,0.178218,0.247525,0.029703,0,3
152,13,1.384615,4.605263,11.692308,1.980263,1,0.486842,1.980263,1.638158,1.388158,0.703947,0.368421,0.236842,0.118421,0.296053,0.019737,0,3
318,73,1.207547,5.198113,4.356164,2.18239,15,0.556604,2.18239,1.886792,1.63522,1.003145,0.465409,0.358491,0.27673,0.374214,0.034591,0.006289,3
94,8,1.375,4.712766,11.75,1.989362,1,0.382979,1.989362,1.723404,1.553191,0.904255,0.351064,0.223404,0.085106,0.12766,0.053191,0,3
183,15,1.615385,4.322404,12.2,1.885246,2,0.36612,1.885246,1.601093,1.26776,0.721311,0.245902,0.15847,0.120219,0.262295,0.021858,0,3
482,42,1.666667,4.707469,11.47619,2.03112,8,0.379668,2.03112,1.724066,1.522822,0.890041,0.315353,0.188797,0.176349,0.261411,0.018672,0.004149,3
442,31,1.916667,4.606335,14.258065,1.957014,8,0.484163,1.957014,1.680995,1.348416,0.735294,0.319005,0.219457,0.151584,0.348416,0.029412,0,3
701,56,1.883721,4.349501,12.517857,1.911555,8,0.430813,1.911555,1.57632,1.262482,0.704708,0.28816,0.17689,0.108417,0.278174,0.008559,0.001427,3
268,19,1.157895,4.585821,14.105263,2.003731,3,0.451493,2.003731,1.630597,1.376866,0.757463,0.384328,0.257463,0.141791,0.283582,0.044776,0,3
246,27,1.2,4.54878,9.111111,1.99187,1,0.296748,1.99187,1.654472,1.479675,0.825203,0.247967,0.121951,0.097561,0.170732,0.00813,0,3
430,52,1.594595,4.513953,8.269231,1.972093,2,0.372093,1.972093,1.634884,1.35814,0.776744,0.32093,0.239535,0.137209,0.24186,0.023256,0,3
680,84,1.377049,4.633824,8.095238,2.038235,10,0.383824,2.038235,1.738235,1.419118,0.838235,0.327941,0.233824,0.123529,0.217647,0.022059,0,3
706,74,2.142857,4.569405,9.540541,1.998584,18,0.451841,1.998584,1.671388,1.33711,0.769122,0.330028,0.185552,0.140227,0.311615,0.022663,0,3
974,96,1.433735,4.643737,10.145833,1.985626,10,0.460986,1.985626,1.713552,1.348049,0.808008,0.338809,0.244353,0.146817,0.330595,0.028747,0.004107,3
324,35,1.703704,4.518519,9.257143,1.861111,1,0.512346,1.861111,1.552469,1.382716,0.820988,0.37963,0.25,0.135802,0.314815,0.046296,0,3
134,14,1.846154,5.007463,9.571429,2.179104,6,0.447761,2.179104,1.738806,1.671642,0.947761,0.38806,0.261194,0.149254,0.238806,0.029851,0,3
92,8,1.375,4.554348,11.5,2.01087,0,0.347826,2.01087,1.717391,1.293478,0.73913,0.293478,0.25,0.097826,0.271739,0,0,3
384,35,1.96,4.807292,10.971429,2.072917,7,0.546875,2.072917,1.739583,1.393229,0.786458,0.429688,0.270833,0.197917,0.442708,0.044271,0,3
440,75,1.20339,4.761364,5.866667,2.038636,7,0.438636,2.038636,1.75,1.470455,0.863636,0.356818,0.254545,0.190909,0.270455,0.015909,0.002273,3
139,13,0,4.741007,10.692308,2.100719,5,0.453237,2.100719,1.661871,1.510791,0.805755,0.366906,0.258993,0.136691,0.266187,0.05036,0.007194,3
186,25,1.409091,4.903226,7.44,2.086022,4,0.403226,2.086022,1.827957,1.591398,0.903226,0.349462,0.258065,0.150538,0.263441,0.026882,0,3
475,70,1.340909,4.903158,6.785714,2.014737,3,0.564211,2.014737,1.68,1.52,0.898947,0.463158,0.303158,0.223158,0.376842,0.046316,0,3
152,18,1.277778,4.605263,8.444444,1.986842,1,0.381579,1.986842,1.690789,1.421053,0.796053,0.282895,0.171053,0.098684,0.223684,0.019737,0,3
566,59,1.765957,4.685512,9.59322,2.033569,7,0.459364,2.033569,1.704947,1.431095,0.828622,0.362191,0.25265,0.183746,0.332155,0.060071,0.001767,3
394,129,1.305085,4.418782,3.054264,1.875635,3,0.385787,1.875635,1.659898,1.30203,0.829949,0.337563,0.266497,0.083756,0.246193,0.015228,0,3
311,36,1.551724,4.70418,8.638889,2.025723,1,0.430868,2.025723,1.733119,1.334405,0.787781,0.247588,0.186495,0.138264,0.353698,0.016077,0,3
205,14,1.571429,4.917073,14.642857,2.117073,4,0.507317,2.117073,1.780488,1.468293,0.82439,0.380488,0.22439,0.219512,0.336585,0.039024,0,3
475,46,1.44186,4.357895,10.326087,1.877895,15,0.397895,1.877895,1.574737,1.221053,0.728421,0.244211,0.170526,0.113684,0.267368,0.029474,0,3
701,70,1.644068,4.510699,10.014286,1.947218,7,0.359486,1.947218,1.681883,1.398003,0.830243,0.295292,0.219686,0.1398,0.235378,0.011412,0.001427,3
385,39,1.65625,4.449351,9.871795,1.948052,7,0.374026,1.948052,1.654545,1.348052,0.774026,0.275325,0.18961,0.119481,0.249351,0.005195,0,3
725,73,1.616667,4.693793,9.931507,2.016552,12,0.475862,2.016552,1.776552,1.376552,0.826207,0.350345,0.226207,0.155862,0.324138,0.028966,0.001379,3
859,163,1.503876,4.528522,5.269939,1.928987,3,0.427241,1.928987,1.644936,1.352736,0.788126,0.364377,0.273574,0.123399,0.223516,0.010477,0,3
317,35,2.1,4.536278,9.057143,1.864353,4,0.438486,1.864353,1.596215,1.384858,0.845426,0.362776,0.280757,0.179811,0.277603,0.028391,0,3
234,28,1.380952,4.782051,8.357143,2.051282,10,0.555556,2.051282,1.722222,1.354701,0.799145,0.448718,0.282051,0.179487,0.431624,0.038462,0.004274,3
698,50,2.323529,4.425501,13.96,1.876791,11,0.369628,1.876791,1.578797,1.295129,0.7149,0.247851,0.166189,0.12894,0.243553,0.007163,0.002865,3
242,43,1.448276,4.652893,5.627907,2.033058,5,0.471074,2.033058,1.739669,1.347107,0.809917,0.384298,0.227273,0.169421,0.330579,0.053719,0,3
500,63,2.565217,4.396,7.936508,1.932,3,0.362,1.932,1.664,1.272,0.786,0.284,0.198,0.132,0.242,0.018,0,3
578,86,1.396226,4.50519,6.72093,1.941176,9,0.425606,1.941176,1.67474,1.301038,0.782007,0.321799,0.212803,0.16263,0.294118,0.020761,0.00173,3
110,11,1.454545,5.363636,10,2.2,9,0.7,2.2,1.863636,1.690909,1.009091,0.536364,0.390909,0.254545,0.509091,0.063636,0,3
287,27,2.15,5.390244,10.62963,2.240418,8,0.470383,2.240418,1.972125,1.808362,1.041812,0.41115,0.30662,0.191638,0.299652,0.031359,0.006969,3
83,11,1.090909,4.120482,7.545455,1.939759,0,0.156627,1.939759,1.614458,1.240964,0.698795,0.13253,0.096386,0.036145,0.072289,0,0,3
141,14,1.285714,4.496454,10.071429,1.943262,0,0.404255,1.943262,1.609929,1.347518,0.77305,0.262411,0.198582,0.12766,0.312057,0,0,3
258,17,1.866667,4.53876,15.176471,1.957364,2,0.372093,1.957364,1.655039,1.410853,0.790698,0.286822,0.209302,0.112403,0.217054,0.011628,0,3
1101,57,2.571429,4.634877,19.315789,2.04178,20,0.440509,2.04178,1.762035,1.349682,0.771117,0.298819,0.217984,0.152589,0.338783,0.018165,0.001817,3
86,6,1.833333,4.44186,14.333333,1.930233,1,0.395349,1.930233,1.651163,1.360465,0.77907,0.302326,0.267442,0.151163,0.290698,0.011628,0,3
207,17,1.235294,4.951691,12.176471,2.062802,8,0.516908,2.062802,1.797101,1.545894,0.903382,0.410628,0.309179,0.120773,0.231884,0.048309,0,3
202,16,1.4375,4.851485,12.625,2.074257,4,0.425743,2.074257,1.722772,1.60396,0.856436,0.366337,0.247525,0.113861,0.222772,0.014851,0.009901,3
127,15,1.2,4.669291,8.466667,2.094488,4,0.322835,2.094488,1.755906,1.496063,0.874016,0.299213,0.228346,0.102362,0.188976,0.015748,0,3
446,54,1.44898,4.497758,8.259259,1.932735,5,0.352018,1.932735,1.726457,1.340807,0.834081,0.289238,0.213004,0.103139,0.192825,0.017937,0,3
452,42,1.8,4.767699,10.761905,2.028761,10,0.44469,2.028761,1.734513,1.506637,0.915929,0.40708,0.314159,0.212389,0.298673,0.026549,0.002212,3
268,29,1.529412,4.593284,9.241379,2.022388,5,0.380597,2.022388,1.716418,1.309701,0.764925,0.287313,0.208955,0.145522,0.261194,0.037313,0.003731,3
704,54,1.73913,4.651989,13.037037,1.953125,12,0.5,1.953125,1.690341,1.34233,0.795455,0.318182,0.230114,0.15625,0.387784,0.06392,0.00142,3
774,150,1.773913,4.436693,5.16,1.897933,3,0.414729,1.897933,1.670543,1.260982,0.790698,0.339793,0.262274,0.139535,0.224806,0.005168,0,3
262,21,3.142857,4.633588,12.47619,1.98855,11,0.442748,1.98855,1.648855,1.385496,0.778626,0.366412,0.244275,0.148855,0.267176,0.019084,0,3
262,21,3.142857,4.633588,12.47619,1.98855,11,0.442748,1.98855,1.648855,1.385496,0.778626,0.366412,0.244275,0.148855,0.267176,0.019084,0,3
507,112,1.265306,4.556213,4.526786,1.936884,5,0.431953,1.936884,1.607495,1.362919,0.769231,0.327416,0.230769,0.169625,0.307692,0.031558,0.011834,3
